NAME : instance_20-triangle
COMMENT : VRPRDL projected to CVRP (closest location per customer; total_demand=2957, k_lb=4)
TYPE : CVRP
DIMENSION : 61
EDGE_WEIGHT_TYPE : EUC_2D 
CAPACITY : 750
NODE_COORD_SECTION 
 1 0 0
 2 -68 -88
 3 -35 -82
 4 -1 -4
 5 -20 81
 6 -46 -8
 7 -71 11
 8 16 0
 9 13 -45
 10 31 2
 11 -4 -50
 12 -71 71
 13 -37 52
 14 -51 48
 15 41 -45
 16 1 -14
 17 -64 -50
 18 0 -97
 19 -56 -49
 20 -141 -35
 21 60 94
 22 57 85
 23 -22 -25
 24 -7 5
 25 -32 -18
 26 5 82
 27 -6 -27
 28 3 -41
 29 14 -19
 30 149 35
 31 -50 40
 32 0 13
 33 86 -104
 34 9 -10
 35 172 25
 36 -13 146
 37 9 78
 38 42 -158
 39 67 40
 40 -115 -38
 41 -41 -88
 42 -19 13
 43 -1 10
 44 9 14
 45 17 -14
 46 96 -115
 47 45 -49
 48 22 9
 49 16 4
 50 74 -17
 51 -87 13
 52 33 0
 53 44 10
 54 -133 109
 55 67 -38
 56 -7 -6
 57 3 -9
 58 30 122
 59 128 84
 60 -60 13
 61 -63 -17
DEMAND_SECTION 
1 0 
2 34 
3 40 
4 39 
5 51 
6 62 
7 81 
8 46 
9 43 
10 57 
11 54 
12 56 
13 20 
14 66 
15 26 
16 69 
17 46 
18 36 
19 30 
20 41 
21 60 
22 44 
23 56 
24 65 
25 36 
26 72 
27 47 
28 52 
29 27 
30 13 
31 38 
32 51 
33 58 
34 52 
35 50 
36 27 
37 22 
38 54 
39 51 
40 53 
41 58 
42 61 
43 76 
44 79 
45 35 
46 51 
47 71 
48 57 
49 50 
50 52 
51 10 
52 74 
53 66 
54 78 
55 18 
56 70 
57 55 
58 58 
59 22 
60 54 
61 37 
DEPOT_SECTION 
 1  
 -1  
EOF 
