NAME : instance_21-triangle
COMMENT : VRPRDL projected to CVRP (closest location per customer; total_demand=3054, k_lb=5)
TYPE : CVRP
DIMENSION : 61
EDGE_WEIGHT_TYPE : EUC_2D 
CAPACITY : 750
NODE_COORD_SECTION 
 1 0 0
 2 43 77
 3 10 3
 4 61 102
 5 26 16
 6 -2 26
 7 -61 11
 8 12 -20
 9 1 -47
 10 -52 -64
 11 -3 2
 12 26 -116
 13 71 -33
 14 -8 -102
 15 -87 -61
 16 50 -31
 17 34 3
 18 20 64
 19 5 23
 20 24 -34
 21 9 99
 22 36 -26
 23 39 -21
 24 -8 26
 25 -51 156
 26 -2 5
 27 80 -31
 28 22 -66
 29 0 95
 30 67 7
 31 48 7
 32 -7 32
 33 -4 16
 34 -43 0
 35 0 36
 36 65 -98
 37 -85 -30
 38 -69 92
 39 62 51
 40 28 -5
 41 13 28
 42 28 112
 43 -20 126
 44 26 -21
 45 -40 24
 46 24 -97
 47 5 64
 48 2 -23
 49 -54 21
 50 1 0
 51 97 20
 52 -65 126
 53 17 26
 54 -132 4
 55 -3 1
 56 -8 54
 57 93 16
 58 17 -139
 59 88 -20
 60 3 5
 61 147 -43
DEMAND_SECTION 
1 0 
2 30 
3 48 
4 71 
5 58 
6 36 
7 50 
8 32 
9 70 
10 62 
11 65 
12 65 
13 53 
14 39 
15 73 
16 42 
17 78 
18 56 
19 66 
20 35 
21 72 
22 25 
23 64 
24 45 
25 41 
26 33 
27 59 
28 55 
29 72 
30 54 
31 34 
32 54 
33 67 
34 68 
35 57 
36 37 
37 76 
38 48 
39 56 
40 26 
41 64 
42 48 
43 22 
44 47 
45 43 
46 13 
47 66 
48 55 
49 41 
50 58 
51 39 
52 45 
53 56 
54 51 
55 46 
56 69 
57 43 
58 36 
59 27 
60 57 
61 56 
DEPOT_SECTION 
 1  
 -1  
EOF 
