NAME : instance_6-triangle
COMMENT : VRPRDL projected to CVRP (closest location per customer; total_demand=1001, k_lb=2)
TYPE : CVRP
DIMENSION : 21
EDGE_WEIGHT_TYPE : EUC_2D 
CAPACITY : 750
NODE_COORD_SECTION 
 1 0 0
 2 -25 0
 3 -67 35
 4 9 17
 5 23 42
 6 8 -49
 7 -77 37
 8 162 65
 9 -88 39
 10 -101 -20
 11 34 -34
 12 72 16
 13 -52 27
 14 -52 19
 15 49 1
 16 -17 49
 17 -10 -42
 18 38 90
 19 -12 -9
 20 -35 52
 21 -53 35
DEMAND_SECTION 
1 0 
2 65 
3 82 
4 54 
5 61 
6 74 
7 63 
8 38 
9 26 
10 53 
11 46 
12 58 
13 32 
14 61 
15 35 
16 34 
17 36 
18 78 
19 18 
20 36 
21 51 
DEPOT_SECTION 
 1  
 -1  
EOF 
