NAME : instance_28-triangle
COMMENT : VRPRDL projected to CVRP (closest location per customer; total_demand=2894, k_lb=4)
TYPE : CVRP
DIMENSION : 61
EDGE_WEIGHT_TYPE : EUC_2D 
CAPACITY : 750
NODE_COORD_SECTION 
 1 0 0
 2 -58 -31
 3 -33 -35
 4 9 2
 5 -40 -32
 6 -133 42
 7 1 35
 8 -33 -21
 9 74 29
 10 19 48
 11 99 26
 12 43 6
 13 -88 -88
 14 -38 32
 15 134 21
 16 -63 -123
 17 -49 -48
 18 3 5
 19 -14 7
 20 -61 51
 21 3 10
 22 -76 -45
 23 76 20
 24 -25 10
 25 38 27
 26 21 -12
 27 -18 -85
 28 147 -43
 29 -22 -5
 30 -21 164
 31 123 30
 32 -8 106
 33 7 -145
 34 -59 48
 35 -19 -63
 36 -9 -36
 37 33 -8
 38 4 -6
 39 -82 68
 40 -159 73
 41 2 -47
 42 2 -1
 43 -59 55
 44 -131 -72
 45 -43 59
 46 3 102
 47 -153 88
 48 -97 20
 49 -44 135
 50 -55 55
 51 78 72
 52 -10 -24
 53 -34 122
 54 -4 -64
 55 20 47
 56 -43 7
 57 28 15
 58 70 127
 59 12 123
 60 -66 -59
 61 18 -24
DEMAND_SECTION 
1 0 
2 55 
3 52 
4 84 
5 39 
6 42 
7 43 
8 65 
9 41 
10 45 
11 52 
12 43 
13 50 
14 51 
15 31 
16 37 
17 64 
18 82 
19 65 
20 51 
21 72 
22 45 
23 69 
24 44 
25 36 
26 65 
27 31 
28 23 
29 44 
30 38 
31 45 
32 59 
33 39 
34 55 
35 79 
36 41 
37 48 
38 43 
39 50 
40 51 
41 38 
42 18 
43 63 
44 36 
45 49 
46 59 
47 62 
48 28 
49 52 
50 60 
51 41 
52 56 
53 26 
54 66 
55 37 
56 27 
57 23 
58 52 
59 39 
60 28 
61 65 
DEPOT_SECTION 
 1  
 -1  
EOF 
