NAME : instance_4-triangle
COMMENT : VRPRDL projected to CVRP (closest location per customer; total_demand=846, k_lb=2)
TYPE : CVRP
DIMENSION : 16
EDGE_WEIGHT_TYPE : EUC_2D 
CAPACITY : 750
NODE_COORD_SECTION 
 1 0 0
 2 114 -29
 3 -82 -81
 4 -75 109
 5 9 16
 6 94 50
 7 -30 -108
 8 151 -54
 9 1 154
 10 -31 -21
 11 -22 -36
 12 -1 -13
 13 11 -26
 14 32 -129
 15 20 -150
 16 -57 18
DEMAND_SECTION 
1 0 
2 49 
3 45 
4 39 
5 67 
6 71 
7 38 
8 34 
9 32 
10 57 
11 63 
12 66 
13 64 
14 73 
15 68 
16 80 
DEPOT_SECTION 
 1  
 -1  
EOF 
