NAME : instance_36-triangle
COMMENT : VRPRDL projected to CVRP (closest location per customer; total_demand=5860, k_lb=8)
TYPE : CVRP
DIMENSION : 120
EDGE_WEIGHT_TYPE : EUC_2D 
CAPACITY : 750
NODE_COORD_SECTION 
 1 0 0
 2 -10 6
 3 108 -86
 4 -13 0
 5 -10 -28
 6 3 7
 7 -55 -88
 8 19 -14
 9 0 -3
 10 -59 79
 11 135 -2
 12 22 64
 13 133 -29
 14 77 -23
 15 -92 -1
 16 -8 9
 17 -46 -19
 18 62 76
 19 -7 11
 20 -19 -42
 21 -14 -12
 22 -53 68
 23 52 -75
 24 8 -85
 25 84 15
 26 -5 -38
 27 89 -78
 28 -139 56
 29 67 -82
 30 -43 -148
 31 -29 -115
 32 -86 -22
 33 -99 20
 34 43 13
 35 21 -18
 36 -59 12
 37 12 -9
 38 14 -37
 39 -36 84
 40 12 -12
 41 -29 48
 42 -89 -3
 43 -98 15
 44 -4 5
 45 -13 -57
 46 -32 -52
 47 -44 10
 48 -33 -28
 49 -7 15
 50 -108 15
 51 54 -98
 52 14 5
 53 19 -48
 54 -5 -21
 55 -42 -7
 56 36 -21
 57 -7 7
 58 18 1
 59 60 28
 60 -3 -14
 61 -26 38
 62 30 3
 63 -58 71
 64 57 71
 65 -66 54
 66 7 -6
 67 34 2
 68 11 -53
 69 -52 124
 70 20 57
 71 -3 27
 72 11 -3
 73 -15 -35
 74 6 -134
 75 -6 -22
 76 12 -143
 77 36 45
 78 3 -76
 79 -15 14
 80 -29 11
 81 13 7
 82 101 62
 83 56 -50
 84 -26 80
 85 -39 12
 86 19 -3
 87 67 21
 88 -83 -61
 89 -100 -9
 90 45 -110
 91 -29 -23
 92 48 -137
 93 90 49
 94 -16 -35
 95 123 -24
 96 -43 -21
 97 -7 -8
 98 27 -36
 99 41 23
 100 23 87
 101 -53 -60
 102 66 1
 103 -39 14
 104 -37 20
 105 -132 5
 106 -22 -17
 107 -37 15
 108 2 -2
 109 55 108
 110 -137 60
 111 78 -112
 112 11 -21
 113 -33 -114
 114 -136 -95
 115 88 -66
 116 13 17
 117 57 -103
 118 -43 76
 119 0 -139
 120 -17 114
DEMAND_SECTION 
1 0 
2 54 
3 53 
4 60 
5 62 
6 71 
7 67 
8 84 
9 43 
10 59 
11 61 
12 33 
13 44 
14 39 
15 41 
16 53 
17 65 
18 57 
19 39 
20 31 
21 48 
22 47 
23 48 
24 19 
25 63 
26 57 
27 63 
28 38 
29 27 
30 67 
31 59 
32 57 
33 56 
34 52 
35 41 
36 32 
37 33 
38 45 
39 51 
40 54 
41 37 
42 75 
43 66 
44 61 
45 29 
46 39 
47 44 
48 49 
49 82 
50 64 
51 41 
52 26 
53 53 
54 59 
55 15 
56 44 
57 17 
58 57 
59 16 
60 37 
61 52 
62 50 
63 66 
64 75 
65 37 
66 23 
67 55 
68 38 
69 72 
70 62 
71 52 
72 39 
73 54 
74 39 
75 66 
76 27 
77 58 
78 64 
79 81 
80 51 
81 36 
82 45 
83 18 
84 32 
85 71 
86 28 
87 54 
88 24 
89 38 
90 66 
91 50 
92 44 
93 40 
94 43 
95 36 
96 63 
97 60 
98 66 
99 67 
100 45 
101 39 
102 45 
103 52 
104 49 
105 69 
106 49 
107 46 
108 39 
109 33 
110 56 
111 52 
112 60 
113 69 
114 28 
115 55 
116 63 
117 50 
118 50 
119 43 
120 42 
DEPOT_SECTION 
 1  
 -1  
EOF 
