NAME : instance_38-triangle
COMMENT : VRPRDL projected to CVRP (closest location per customer; total_demand=5782, k_lb=8)
TYPE : CVRP
DIMENSION : 121
EDGE_WEIGHT_TYPE : EUC_2D 
CAPACITY : 750
NODE_COORD_SECTION 
 1 0 0
 2 -20 -107
 3 58 57
 4 7 10
 5 -30 80
 6 -17 -78
 7 -13 40
 8 -11 26
 9 -63 56
 10 -80 114
 11 21 58
 12 58 -31
 13 -10 22
 14 92 -30
 15 -27 -28
 16 -53 -14
 17 -17 43
 18 7 96
 19 -12 -42
 20 -51 18
 21 86 47
 22 -58 39
 23 -27 -22
 24 0 0
 25 -40 28
 26 137 80
 27 19 114
 28 -91 -45
 29 131 -89
 30 -53 -26
 31 -16 34
 32 82 -21
 33 137 -13
 34 -54 -28
 35 -23 -31
 36 -76 -18
 37 -74 16
 38 -20 -9
 39 -86 -133
 40 7 25
 41 -111 67
 42 -1 -33
 43 -1 17
 44 8 -21
 45 -42 -138
 46 -13 -97
 47 21 7
 48 2 102
 49 151 -52
 50 -33 32
 51 3 -5
 52 -1 76
 53 82 -34
 54 6 28
 55 -63 81
 56 31 26
 57 69 107
 58 -17 131
 59 1 -59
 60 -69 -61
 61 -8 -38
 62 9 -37
 63 88 -36
 64 13 68
 65 11 14
 66 11 -75
 67 -49 15
 68 -5 23
 69 -68 103
 70 -77 68
 71 76 -60
 72 -46 37
 73 -53 149
 74 -65 -123
 75 110 53
 76 -32 48
 77 0 0
 78 -29 -11
 79 -22 -54
 80 120 -61
 81 50 20
 82 -6 66
 83 -50 -58
 84 -73 -8
 85 58 48
 86 -1 4
 87 -82 -153
 88 48 -57
 89 -52 -159
 90 51 28
 91 -131 96
 92 102 105
 93 20 -17
 94 -43 16
 95 153 -81
 96 15 -37
 97 0 -105
 98 -22 140
 99 0 -9
 100 -6 -52
 101 112 27
 102 -15 -4
 103 16 0
 104 -33 50
 105 0 0
 106 14 0
 107 0 0
 108 7 -41
 109 14 -127
 110 -1 0
 111 -3 -11
 112 -60 -121
 113 -65 -149
 114 -12 75
 115 150 -52
 116 6 -30
 117 -43 68
 118 93 -19
 119 -3 4
 120 72 80
 121 56 -26
DEMAND_SECTION 
1 0 
2 53 
3 55 
4 51 
5 46 
6 51 
7 27 
8 38 
9 71 
10 32 
11 46 
12 55 
13 77 
14 69 
15 58 
16 59 
17 39 
18 53 
19 60 
20 38 
21 40 
22 58 
23 52 
24 66 
25 46 
26 49 
27 64 
28 38 
29 29 
30 50 
31 60 
32 40 
33 52 
34 48 
35 30 
36 51 
37 51 
38 70 
39 41 
40 55 
41 35 
42 40 
43 34 
44 38 
45 38 
46 71 
47 52 
48 69 
49 36 
50 65 
51 56 
52 54 
53 58 
54 81 
55 66 
56 52 
57 49 
58 38 
59 30 
60 26 
61 30 
62 30 
63 47 
64 36 
65 47 
66 23 
67 50 
68 21 
69 62 
70 44 
71 46 
72 44 
73 63 
74 44 
75 50 
76 38 
77 29 
78 55 
79 60 
80 19 
81 33 
82 69 
83 40 
84 30 
85 89 
86 60 
87 70 
88 47 
89 26 
90 52 
91 63 
92 46 
93 49 
94 27 
95 22 
96 36 
97 61 
98 54 
99 47 
100 22 
101 60 
102 45 
103 45 
104 37 
105 41 
106 51 
107 55 
108 43 
109 48 
110 46 
111 39 
112 69 
113 69 
114 56 
115 21 
116 56 
117 42 
118 63 
119 49 
120 59 
121 51 
DEPOT_SECTION 
 1  
 -1  
EOF 
