NAME : instance_16-triangle
COMMENT : VRPRDL projected to CVRP (closest location per customer; total_demand=1451, k_lb=2)
TYPE : CVRP
DIMENSION : 31
EDGE_WEIGHT_TYPE : EUC_2D 
CAPACITY : 750
NODE_COORD_SECTION 
 1 0 0
 2 80 -11
 3 24 22
 4 48 -98
 5 55 -16
 6 -90 2
 7 -119 -63
 8 0 -69
 9 14 -134
 10 -96 -48
 11 20 -40
 12 2 0
 13 11 1
 14 123 19
 15 93 -22
 16 3 -29
 17 -3 11
 18 -28 -47
 19 2 0
 20 91 -56
 21 88 -103
 22 8 23
 23 48 0
 24 0 57
 25 -27 28
 26 63 13
 27 -21 3
 28 0 -39
 29 46 34
 30 102 78
 31 -66 62
DEMAND_SECTION 
1 0 
2 44 
3 29 
4 79 
5 69 
6 40 
7 29 
8 16 
9 54 
10 91 
11 60 
12 32 
13 54 
14 48 
15 38 
16 32 
17 43 
18 74 
19 35 
20 58 
21 49 
22 47 
23 32 
24 79 
25 48 
26 50 
27 41 
28 41 
29 44 
30 27 
31 68 
DEPOT_SECTION 
 1  
 -1  
EOF 
