NAME : instance_35-triangle
COMMENT : VRPRDL projected to CVRP (closest location per customer; total_demand=5884, k_lb=8)
TYPE : CVRP
DIMENSION : 121
EDGE_WEIGHT_TYPE : EUC_2D 
CAPACITY : 750
NODE_COORD_SECTION 
 1 0 0
 2 -53 153
 3 61 -116
 4 14 -18
 5 -10 6
 6 -22 39
 7 -26 154
 8 86 -18
 9 -6 16
 10 16 18
 11 5 -46
 12 -109 10
 13 4 2
 14 83 111
 15 -9 108
 16 -157 17
 17 -88 -32
 18 -65 63
 19 -15 175
 20 5 10
 21 39 94
 22 1 127
 23 -7 -171
 24 2 2
 25 -65 -39
 26 53 -13
 27 -49 69
 28 -60 151
 29 -10 -86
 30 98 66
 31 -54 -88
 32 158 -12
 33 -109 32
 34 -154 -29
 35 21 -16
 36 88 -103
 37 -55 -94
 38 -6 3
 39 77 28
 40 7 -35
 41 -65 103
 42 20 22
 43 15 46
 44 -42 -11
 45 -33 3
 46 -68 -74
 47 -4 25
 48 -74 -20
 49 -3 21
 50 22 35
 51 16 38
 52 83 64
 53 9 53
 54 74 105
 55 20 2
 56 -44 -2
 57 -12 40
 58 88 -48
 59 -69 -34
 60 50 -20
 61 -18 -1
 62 -1 5
 63 99 0
 64 33 -105
 65 -74 -31
 66 1 -78
 67 54 -59
 68 62 79
 69 36 -74
 70 3 -12
 71 101 21
 72 90 122
 73 18 -109
 74 23 2
 75 -29 9
 76 -96 103
 77 61 0
 78 57 33
 79 29 -71
 80 67 -19
 81 -34 72
 82 93 -49
 83 -67 -110
 84 29 101
 85 -13 -14
 86 -33 54
 87 90 11
 88 -2 -1
 89 40 78
 90 -93 16
 91 76 -21
 92 -28 80
 93 -96 -84
 94 -37 7
 95 -3 -1
 96 62 45
 97 -80 63
 98 11 -4
 99 -108 115
 100 8 -6
 101 -79 -141
 102 27 -57
 103 -92 78
 104 -18 28
 105 -15 -14
 106 49 -45
 107 -86 -5
 108 -5 -25
 109 54 66
 110 9 79
 111 0 0
 112 -36 -62
 113 13 -2
 114 99 -75
 115 -24 164
 116 -30 -20
 117 -67 88
 118 17 88
 119 31 -31
 120 -77 101
 121 -127 -125
DEMAND_SECTION 
1 0 
2 19 
3 74 
4 55 
5 47 
6 49 
7 40 
8 36 
9 47 
10 47 
11 41 
12 66 
13 45 
14 44 
15 62 
16 39 
17 44 
18 37 
19 54 
20 42 
21 60 
22 26 
23 54 
24 85 
25 42 
26 68 
27 47 
28 45 
29 25 
30 56 
31 45 
32 58 
33 30 
34 32 
35 45 
36 61 
37 59 
38 49 
39 56 
40 64 
41 41 
42 28 
43 44 
44 54 
45 45 
46 55 
47 81 
48 29 
49 39 
50 69 
51 52 
52 51 
53 65 
54 46 
55 44 
56 44 
57 40 
58 82 
59 42 
60 73 
61 47 
62 71 
63 67 
64 28 
65 74 
66 62 
67 52 
68 48 
69 60 
70 67 
71 64 
72 7 
73 61 
74 36 
75 34 
76 72 
77 56 
78 46 
79 62 
80 43 
81 65 
82 59 
83 22 
84 28 
85 62 
86 37 
87 70 
88 39 
89 40 
90 60 
91 30 
92 25 
93 35 
94 30 
95 67 
96 45 
97 66 
98 47 
99 56 
100 55 
101 48 
102 37 
103 20 
104 45 
105 36 
106 43 
107 69 
108 61 
109 52 
110 61 
111 35 
112 48 
113 65 
114 68 
115 51 
116 44 
117 14 
118 49 
119 22 
120 78 
121 24 
DEPOT_SECTION 
 1  
 -1  
EOF 
