NAME : instance_2-triangle
COMMENT : VRPRDL projected to CVRP (closest location per customer; total_demand=713, k_lb=1)
TYPE : CVRP
DIMENSION : 16
EDGE_WEIGHT_TYPE : EUC_2D 
CAPACITY : 750
NODE_COORD_SECTION 
 1 0 0
 2 49 6
 3 146 81
 4 32 -7
 5 -34 23
 6 44 -24
 7 -147 65
 8 68 -39
 9 40 60
 10 1 8
 11 -3 25
 12 -25 68
 13 -18 17
 14 -1 -7
 15 28 -39
 16 -57 23
DEMAND_SECTION 
1 0 
2 61 
3 64 
4 30 
5 51 
6 45 
7 43 
8 32 
9 52 
10 34 
11 38 
12 30 
13 42 
14 60 
15 79 
16 52 
DEPOT_SECTION 
 1  
 -1  
EOF 
