NAME : instance_23-triangle
COMMENT : VRPRDL projected to CVRP (closest location per customer; total_demand=2985, k_lb=4)
TYPE : CVRP
DIMENSION : 61
EDGE_WEIGHT_TYPE : EUC_2D 
CAPACITY : 750
NODE_COORD_SECTION 
 1 0 0
 2 -75 79
 3 76 -6
 4 1 120
 5 88 55
 6 26 100
 7 -36 -11
 8 -6 50
 9 -154 42
 10 56 89
 11 44 -55
 12 -10 90
 13 101 -116
 14 -31 19
 15 29 38
 16 -86 23
 17 -100 -9
 18 15 -55
 19 88 108
 20 -5 12
 21 -112 -37
 22 2 39
 23 -51 61
 24 12 -35
 25 -7 -92
 26 -16 -102
 27 10 3
 28 -31 25
 29 128 -65
 30 44 18
 31 13 19
 32 146 30
 33 93 -24
 34 -20 21
 35 121 -63
 36 53 -119
 37 3 7
 38 106 -53
 39 -20 -106
 40 -4 60
 41 -12 9
 42 -7 -28
 43 4 0
 44 -95 -44
 45 23 36
 46 -143 -27
 47 11 -2
 48 97 74
 49 -50 -81
 50 55 -32
 51 1 -7
 52 25 12
 53 -4 17
 54 -15 -31
 55 75 -85
 56 -11 64
 57 -37 -91
 58 -62 12
 59 -68 -135
 60 -83 54
 61 -27 136
DEMAND_SECTION 
1 0 
2 60 
3 49 
4 51 
5 44 
6 53 
7 35 
8 52 
9 65 
10 64 
11 33 
12 16 
13 17 
14 49 
15 50 
16 43 
17 47 
18 46 
19 57 
20 79 
21 75 
22 60 
23 32 
24 50 
25 35 
26 69 
27 56 
28 50 
29 27 
30 60 
31 46 
32 42 
33 61 
34 60 
35 79 
36 47 
37 53 
38 63 
39 51 
40 27 
41 26 
42 47 
43 83 
44 76 
45 45 
46 34 
47 61 
48 43 
49 48 
50 42 
51 46 
52 57 
53 58 
54 52 
55 30 
56 40 
57 68 
58 49 
59 40 
60 31 
61 56 
DEPOT_SECTION 
 1  
 -1  
EOF 
