NAME : instance_8-triangle
COMMENT : VRPRDL projected to CVRP (closest location per customer; total_demand=995, k_lb=2)
TYPE : CVRP
DIMENSION : 21
EDGE_WEIGHT_TYPE : EUC_2D 
CAPACITY : 750
NODE_COORD_SECTION 
 1 0 0
 2 82 28
 3 64 -32
 4 27 32
 5 -55 -162
 6 21 -44
 7 -31 -1
 8 74 94
 9 -12 2
 10 65 72
 11 -1 3
 12 -63 55
 13 2 -20
 14 2 -20
 15 -14 19
 16 69 -61
 17 -19 25
 18 40 -77
 19 38 60
 20 61 72
 21 27 -4
DEMAND_SECTION 
1 0 
2 60 
3 62 
4 74 
5 36 
6 55 
7 45 
8 30 
9 32 
10 63 
11 55 
12 18 
13 46 
14 45 
15 44 
16 82 
17 43 
18 58 
19 43 
20 43 
21 61 
DEPOT_SECTION 
 1  
 -1  
EOF 
