NAME : instance_34-triangle
COMMENT : VRPRDL projected to CVRP (closest location per customer; total_demand=5888, k_lb=8)
TYPE : CVRP
DIMENSION : 121
EDGE_WEIGHT_TYPE : EUC_2D 
CAPACITY : 750
NODE_COORD_SECTION 
 1 0 0
 2 -17 -28
 3 24 -3
 4 5 -17
 5 -1 1
 6 21 41
 7 13 2
 8 -65 6
 9 -35 -51
 10 63 -20
 11 17 17
 12 10 100
 13 2 -41
 14 23 22
 15 17 8
 16 -53 -62
 17 -62 -49
 18 -78 30
 19 5 -3
 20 132 -25
 21 42 -6
 22 -56 -129
 23 -5 -39
 24 61 -15
 25 17 0
 26 4 174
 27 0 -19
 28 96 60
 29 17 11
 30 50 -48
 31 39 -25
 32 21 -63
 33 -2 -12
 34 32 -110
 35 -91 52
 36 8 73
 37 -6 -7
 38 -3 24
 39 44 51
 40 22 3
 41 -92 7
 42 35 37
 43 23 -154
 44 -66 60
 45 14 43
 46 -8 63
 47 6 3
 48 6 14
 49 8 -5
 50 -12 -12
 51 20 -29
 52 57 -33
 53 91 56
 54 -115 -10
 55 32 12
 56 145 -7
 57 20 7
 58 22 -3
 59 -12 30
 60 90 -53
 61 47 53
 62 9 39
 63 -14 18
 64 13 1
 65 -1 -3
 66 -35 34
 67 19 20
 68 -24 -15
 69 -3 -11
 70 -18 -64
 71 -63 -24
 72 -11 25
 73 -5 43
 74 -104 -10
 75 53 10
 76 22 -50
 77 -5 7
 78 -27 18
 79 -20 80
 80 -29 -38
 81 -87 26
 82 32 -8
 83 24 90
 84 59 59
 85 136 -37
 86 -85 5
 87 67 90
 88 -68 -18
 89 -2 -12
 90 -12 25
 91 120 24
 92 -31 70
 93 29 -84
 94 -31 29
 95 -9 -90
 96 -79 -15
 97 18 8
 98 -15 38
 99 -20 21
 100 -51 12
 101 -13 13
 102 -40 63
 103 -43 24
 104 -71 32
 105 21 23
 106 -25 14
 107 -10 -174
 108 -63 37
 109 26 40
 110 115 21
 111 -7 5
 112 -85 -16
 113 -142 46
 114 2 39
 115 27 -153
 116 126 84
 117 -97 -39
 118 -11 168
 119 27 42
 120 117 -38
 121 -3 -158
DEMAND_SECTION 
1 0 
2 54 
3 51 
4 51 
5 65 
6 41 
7 51 
8 48 
9 67 
10 42 
11 50 
12 57 
13 51 
14 25 
15 49 
16 70 
17 59 
18 27 
19 50 
20 51 
21 38 
22 68 
23 24 
24 34 
25 50 
26 32 
27 57 
28 78 
29 45 
30 22 
31 40 
32 47 
33 42 
34 44 
35 76 
36 61 
37 87 
38 78 
39 54 
40 38 
41 70 
42 45 
43 47 
44 32 
45 22 
46 38 
47 39 
48 55 
49 73 
50 66 
51 53 
52 56 
53 49 
54 40 
55 57 
56 64 
57 33 
58 24 
59 80 
60 42 
61 36 
62 48 
63 49 
64 44 
65 67 
66 57 
67 46 
68 47 
69 59 
70 47 
71 57 
72 45 
73 52 
74 36 
75 34 
76 46 
77 56 
78 63 
79 66 
80 38 
81 43 
82 67 
83 52 
84 32 
85 42 
86 34 
87 52 
88 30 
89 41 
90 32 
91 35 
92 58 
93 67 
94 66 
95 58 
96 73 
97 34 
98 43 
99 45 
100 34 
101 56 
102 66 
103 20 
104 76 
105 37 
106 62 
107 65 
108 29 
109 77 
110 54 
111 36 
112 82 
113 49 
114 49 
115 35 
116 29 
117 45 
118 34 
119 45 
120 20 
121 32 
DEPOT_SECTION 
 1  
 -1  
EOF 
