NAME : instance_27-triangle
COMMENT : VRPRDL projected to CVRP (closest location per customer; total_demand=2622, k_lb=4)
TYPE : CVRP
DIMENSION : 61
EDGE_WEIGHT_TYPE : EUC_2D 
CAPACITY : 750
NODE_COORD_SECTION 
 1 0 0
 2 -67 -16
 3 -5 3
 4 2 -11
 5 11 19
 6 -9 -113
 7 -90 -35
 8 0 1
 9 7 15
 10 -6 11
 11 -33 7
 12 -25 -159
 13 -24 12
 14 -68 53
 15 -33 -138
 16 0 -25
 17 34 122
 18 -5 44
 19 -36 -88
 20 -10 2
 21 -16 -112
 22 -84 -56
 23 -116 19
 24 51 43
 25 -7 -14
 26 -49 -48
 27 1 61
 28 0 -12
 29 4 -15
 30 -4 -14
 31 -63 66
 32 -117 20
 33 152 -63
 34 -5 -31
 35 17 -166
 36 -112 -93
 37 25 13
 38 19 66
 39 -62 22
 40 -3 -13
 41 -9 67
 42 -126 -113
 43 -2 30
 44 30 -89
 45 -87 -2
 46 13 -3
 47 99 -75
 48 -13 7
 49 -5 8
 50 0 11
 51 10 -2
 52 122 -55
 53 22 -28
 54 -3 1
 55 26 3
 56 14 46
 57 -29 34
 58 6 51
 59 23 48
 60 106 81
 61 -100 20
DEMAND_SECTION 
1 0 
2 12 
3 47 
4 39 
5 68 
6 40 
7 35 
8 64 
9 15 
10 37 
11 50 
12 36 
13 48 
14 72 
15 43 
16 45 
17 46 
18 36 
19 56 
20 56 
21 43 
22 49 
23 48 
24 10 
25 37 
26 25 
27 51 
28 26 
29 30 
30 68 
31 34 
32 47 
33 41 
34 33 
35 34 
36 31 
37 45 
38 39 
39 57 
40 55 
41 53 
42 57 
43 18 
44 45 
45 36 
46 9 
47 10 
48 43 
49 45 
50 61 
51 47 
52 52 
53 24 
54 67 
55 76 
56 51 
57 41 
58 58 
59 63 
60 68 
61 50 
DEPOT_SECTION 
 1  
 -1  
EOF 
