NAME : instance_26-triangle
COMMENT : VRPRDL projected to CVRP (closest location per customer; total_demand=2925, k_lb=4)
TYPE : CVRP
DIMENSION : 61
EDGE_WEIGHT_TYPE : EUC_2D 
CAPACITY : 750
NODE_COORD_SECTION 
 1 0 0
 2 -33 -27
 3 90 43
 4 -31 -66
 5 87 -98
 6 -113 137
 7 45 -148
 8 113 77
 9 81 -59
 10 9 23
 11 31 -14
 12 -32 137
 13 -4 28
 14 -43 -143
 15 -70 83
 16 -74 18
 17 -55 -83
 18 126 -23
 19 18 -124
 20 -14 -47
 21 133 -21
 22 6 5
 23 -60 -107
 24 -104 -45
 25 -5 -5
 26 -77 52
 27 110 -1
 28 -89 28
 29 -34 71
 30 32 -83
 31 -6 -36
 32 -98 66
 33 -49 -135
 34 -95 -46
 35 15 -69
 36 -24 -71
 37 -17 21
 38 56 26
 39 0 8
 40 20 -8
 41 -66 -39
 42 25 -91
 43 3 -19
 44 -30 159
 45 -14 6
 46 87 -24
 47 -41 43
 48 126 -18
 49 26 -18
 50 -124 60
 51 38 -129
 52 -27 123
 53 -3 12
 54 -33 19
 55 13 1
 56 -45 -31
 57 -5 14
 58 -5 26
 59 -13 -7
 60 -55 -16
 61 -37 23
DEMAND_SECTION 
1 0 
2 17 
3 32 
4 56 
5 69 
6 68 
7 45 
8 33 
9 49 
10 52 
11 46 
12 42 
13 62 
14 81 
15 33 
16 53 
17 15 
18 58 
19 49 
20 56 
21 43 
22 59 
23 29 
24 58 
25 71 
26 44 
27 37 
28 47 
29 57 
30 49 
31 71 
32 43 
33 67 
34 60 
35 75 
36 43 
37 58 
38 20 
39 47 
40 70 
41 57 
42 36 
43 55 
44 40 
45 55 
46 46 
47 57 
48 22 
49 46 
50 62 
51 65 
52 37 
53 49 
54 60 
55 51 
56 40 
57 24 
58 24 
59 61 
60 43 
61 31 
DEPOT_SECTION 
 1  
 -1  
EOF 
