NAME : instance_30-triangle
COMMENT : VRPRDL projected to CVRP (closest location per customer; total_demand=5900, k_lb=8)
TYPE : CVRP
DIMENSION : 121
EDGE_WEIGHT_TYPE : EUC_2D 
CAPACITY : 750
NODE_COORD_SECTION 
 1 0 0
 2 -9 -20
 3 -55 6
 4 146 51
 5 -7 4
 6 49 17
 7 -99 30
 8 -21 -53
 9 5 -115
 10 -100 92
 11 43 8
 12 140 35
 13 -5 -55
 14 109 64
 15 -59 -96
 16 -27 -108
 17 19 -5
 18 -2 -4
 19 -9 -19
 20 -6 2
 21 -53 4
 22 22 76
 23 3 -2
 24 -18 -24
 25 71 105
 26 52 24
 27 -4 -9
 28 6 -9
 29 19 5
 30 2 -22
 31 7 -6
 32 80 -54
 33 -98 7
 34 1 -45
 35 -78 -2
 36 -18 11
 37 -141 -89
 38 48 23
 39 -65 -26
 40 -126 38
 41 5 -7
 42 -80 2
 43 6 -179
 44 17 -49
 45 32 -15
 46 -17 129
 47 -9 -5
 48 30 -11
 49 21 77
 50 91 -57
 51 73 105
 52 -143 61
 53 24 26
 54 71 -119
 55 -26 74
 56 -1 -1
 57 -61 12
 58 47 -117
 59 -18 1
 60 -88 69
 61 -21 -62
 62 -85 12
 63 -2 44
 64 -8 1
 65 150 8
 66 -24 -91
 67 -25 34
 68 57 89
 69 4 2
 70 8 7
 71 75 23
 72 -14 -6
 73 16 28
 74 1 -59
 75 -22 8
 76 47 91
 77 -5 -8
 78 -40 52
 79 -60 9
 80 -1 -49
 81 -113 -89
 82 -2 3
 83 6 11
 84 -79 70
 85 16 19
 86 -8 -82
 87 -68 112
 88 -6 -14
 89 68 -49
 90 47 48
 91 167 6
 92 13 -36
 93 -9 19
 94 -133 -93
 95 6 -22
 96 11 -19
 97 -7 7
 98 -25 -30
 99 26 99
 100 21 -13
 101 -51 -36
 102 7 -34
 103 17 -37
 104 -66 -9
 105 157 33
 106 -20 -58
 107 14 -10
 108 0 0
 109 -3 7
 110 13 37
 111 41 -14
 112 -86 12
 113 50 -41
 114 -3 -12
 115 21 22
 116 92 43
 117 -5 -16
 118 -63 -163
 119 -51 -21
 120 -92 -18
 121 -18 3
DEMAND_SECTION 
1 0 
2 73 
3 40 
4 41 
5 46 
6 20 
7 41 
8 44 
9 60 
10 65 
11 48 
12 63 
13 64 
14 55 
15 33 
16 39 
17 38 
18 41 
19 36 
20 72 
21 47 
22 41 
23 45 
24 24 
25 61 
26 38 
27 41 
28 51 
29 43 
30 39 
31 62 
32 48 
33 28 
34 27 
35 46 
36 70 
37 79 
38 48 
39 21 
40 75 
41 42 
42 68 
43 58 
44 56 
45 77 
46 52 
47 97 
48 36 
49 49 
50 35 
51 45 
52 30 
53 42 
54 58 
55 16 
56 67 
57 59 
58 39 
59 59 
60 72 
61 39 
62 23 
63 57 
64 37 
65 25 
66 69 
67 60 
68 59 
69 88 
70 67 
71 56 
72 32 
73 47 
74 62 
75 58 
76 47 
77 81 
78 41 
79 68 
80 25 
81 62 
82 65 
83 54 
84 41 
85 67 
86 46 
87 36 
88 17 
89 53 
90 28 
91 10 
92 33 
93 72 
94 64 
95 48 
96 67 
97 36 
98 54 
99 40 
100 56 
101 59 
102 71 
103 46 
104 60 
105 49 
106 46 
107 64 
108 40 
109 26 
110 45 
111 57 
112 44 
113 26 
114 68 
115 22 
116 50 
117 32 
118 45 
119 60 
120 52 
121 38 
DEPOT_SECTION 
 1  
 -1  
EOF 
