NAME : instance_29-triangle
COMMENT : VRPRDL projected to CVRP (closest location per customer; total_demand=2865, k_lb=4)
TYPE : CVRP
DIMENSION : 61
EDGE_WEIGHT_TYPE : EUC_2D 
CAPACITY : 750
NODE_COORD_SECTION 
 1 0 0
 2 45 -104
 3 -4 -9
 4 -55 0
 5 141 7
 6 80 -33
 7 -115 -49
 8 3 -23
 9 90 124
 10 30 17
 11 -12 7
 12 74 -4
 13 59 55
 14 -36 -130
 15 45 133
 16 3 -46
 17 51 40
 18 5 -3
 19 7 -59
 20 -58 121
 21 39 -7
 22 -86 37
 23 3 15
 24 44 61
 25 -15 -42
 26 42 -127
 27 -66 42
 28 2 4
 29 -30 -13
 30 -46 -103
 31 34 -96
 32 -124 122
 33 -16 -11
 34 -59 20
 35 -101 52
 36 -78 -128
 37 88 -11
 38 77 99
 39 -69 70
 40 24 -154
 41 3 76
 42 36 106
 43 74 6
 44 10 -7
 45 14 40
 46 138 -77
 47 19 -44
 48 42 26
 49 113 20
 50 -39 -75
 51 -138 37
 52 95 -21
 53 -40 -86
 54 -51 42
 55 -7 2
 56 80 16
 57 -10 6
 58 73 33
 59 -52 -65
 60 -8 -87
 61 9 9
DEMAND_SECTION 
1 0 
2 67 
3 32 
4 46 
5 54 
6 50 
7 52 
8 53 
9 57 
10 35 
11 60 
12 68 
13 27 
14 47 
15 42 
16 20 
17 68 
18 46 
19 50 
20 34 
21 46 
22 60 
23 51 
24 17 
25 55 
26 50 
27 19 
28 73 
29 52 
30 68 
31 22 
32 46 
33 43 
34 50 
35 82 
36 47 
37 60 
38 63 
39 50 
40 55 
41 59 
42 42 
43 41 
44 20 
45 29 
46 22 
47 29 
48 45 
49 46 
50 51 
51 51 
52 59 
53 31 
54 47 
55 66 
56 58 
57 55 
58 32 
59 45 
60 69 
61 51 
DEPOT_SECTION 
 1  
 -1  
EOF 
