NAME : instance_33-triangle
COMMENT : VRPRDL projected to CVRP (closest location per customer; total_demand=5663, k_lb=8)
TYPE : CVRP
DIMENSION : 121
EDGE_WEIGHT_TYPE : EUC_2D 
CAPACITY : 750
NODE_COORD_SECTION 
 1 0 0
 2 9 13
 3 -19 32
 4 130 -54
 5 -53 1
 6 -75 -40
 7 -34 -1
 8 -30 -92
 9 -9 14
 10 52 -71
 11 -28 76
 12 -8 -1
 13 -30 81
 14 93 46
 15 33 -13
 16 -19 -26
 17 53 -48
 18 -3 -31
 19 2 -5
 20 -22 143
 21 67 77
 22 -69 -10
 23 22 -16
 24 6 15
 25 16 74
 26 169 23
 27 4 35
 28 -40 23
 29 -123 -116
 30 142 30
 31 21 -2
 32 -69 -23
 33 -7 14
 34 -17 -48
 35 -41 78
 36 96 -134
 37 -41 51
 38 -5 0
 39 -6 -14
 40 -89 53
 41 -2 -1
 42 -114 8
 43 -129 -28
 44 -138 -24
 45 35 -21
 46 -7 -1
 47 -59 40
 48 -42 18
 49 33 -30
 50 5 -9
 51 -41 14
 52 -24 27
 53 -8 10
 54 -42 -59
 55 17 -83
 56 22 -12
 57 61 81
 58 2 -4
 59 -49 -71
 60 49 -71
 61 -2 68
 62 -114 -19
 63 22 9
 64 -1 77
 65 -82 15
 66 118 -28
 67 -96 17
 68 77 -97
 69 5 -92
 70 127 -79
 71 -112 -47
 72 26 25
 73 128 107
 74 39 -49
 75 -1 -125
 76 -15 -3
 77 34 -89
 78 7 -5
 79 68 102
 80 -6 58
 81 -71 7
 82 123 -10
 83 -3 0
 84 -73 19
 85 -7 12
 86 67 -7
 87 -118 28
 88 -30 64
 89 13 51
 90 82 -55
 91 -61 -32
 92 38 109
 93 -24 -16
 94 -24 52
 95 79 -87
 96 -48 -1
 97 91 -29
 98 46 22
 99 -53 -28
 100 -101 53
 101 -63 4
 102 3 -1
 103 -27 4
 104 162 -68
 105 -20 32
 106 34 24
 107 13 -132
 108 15 31
 109 15 -47
 110 37 -21
 111 6 11
 112 -6 -13
 113 29 41
 114 18 22
 115 -10 -31
 116 -65 134
 117 3 12
 118 -61 -55
 119 -138 -22
 120 28 45
 121 -57 10
DEMAND_SECTION 
1 0 
2 54 
3 43 
4 43 
5 35 
6 64 
7 58 
8 63 
9 57 
10 59 
11 75 
12 61 
13 68 
14 46 
15 63 
16 34 
17 68 
18 66 
19 73 
20 46 
21 46 
22 60 
23 51 
24 55 
25 72 
26 39 
27 54 
28 57 
29 28 
30 43 
31 66 
32 42 
33 49 
34 50 
35 37 
36 43 
37 50 
38 33 
39 57 
40 46 
41 23 
42 77 
43 55 
44 30 
45 31 
46 49 
47 55 
48 47 
49 22 
50 22 
51 52 
52 59 
53 67 
54 27 
55 46 
56 40 
57 36 
58 50 
59 46 
60 42 
61 44 
62 12 
63 46 
64 38 
65 48 
66 61 
67 42 
68 30 
69 49 
70 48 
71 54 
72 39 
73 61 
74 48 
75 37 
76 50 
77 77 
78 38 
79 29 
80 51 
81 57 
82 34 
83 59 
84 51 
85 56 
86 65 
87 23 
88 37 
89 40 
90 23 
91 23 
92 23 
93 40 
94 78 
95 58 
96 20 
97 79 
98 33 
99 54 
100 23 
101 36 
102 36 
103 24 
104 66 
105 37 
106 37 
107 32 
108 37 
109 52 
110 43 
111 48 
112 61 
113 37 
114 46 
115 88 
116 26 
117 34 
118 65 
119 42 
120 72 
121 36 
DEPOT_SECTION 
 1  
 -1  
EOF 
