NAME : instance_13-triangle
COMMENT : VRPRDL projected to CVRP (closest location per customer; total_demand=1414, k_lb=2)
TYPE : CVRP
DIMENSION : 31
EDGE_WEIGHT_TYPE : EUC_2D 
CAPACITY : 750
NODE_COORD_SECTION 
 1 0 0
 2 -58 -21
 3 -38 28
 4 -74 -76
 5 30 2
 6 -19 -39
 7 4 -47
 8 -30 60
 9 56 -25
 10 13 7
 11 -26 4
 12 2 2
 13 -5 17
 14 -120 -26
 15 62 -49
 16 82 36
 17 -58 86
 18 -56 14
 19 -124 6
 20 13 -78
 21 -10 -21
 22 -17 48
 23 33 97
 24 5 -5
 25 15 114
 26 -22 22
 27 28 -69
 28 4 -2
 29 -6 4
 30 -74 40
 31 24 14
DEMAND_SECTION 
1 0 
2 54 
3 34 
4 81 
5 39 
6 39 
7 57 
8 42 
9 46 
10 35 
11 60 
12 57 
13 55 
14 57 
15 53 
16 48 
17 48 
18 50 
19 62 
20 61 
21 60 
22 42 
23 51 
24 36 
25 36 
26 42 
27 55 
28 35 
29 37 
30 39 
31 3 
DEPOT_SECTION 
 1  
 -1  
EOF 
