NAME : instance_25-triangle
COMMENT : VRPRDL projected to CVRP (closest location per customer; total_demand=3043, k_lb=5)
TYPE : CVRP
DIMENSION : 61
EDGE_WEIGHT_TYPE : EUC_2D 
CAPACITY : 750
NODE_COORD_SECTION 
 1 0 0
 2 33 -54
 3 -139 72
 4 -6 -18
 5 -28 0
 6 30 57
 7 -13 9
 8 67 97
 9 17 -105
 10 66 109
 11 -69 -41
 12 43 -72
 13 0 -1
 14 -108 50
 15 -123 47
 16 47 112
 17 47 -78
 18 16 30
 19 50 -51
 20 2 0
 21 166 -2
 22 16 -6
 23 55 82
 24 79 -93
 25 -96 0
 26 20 -3
 27 52 25
 28 24 -3
 29 14 -8
 30 -37 -59
 31 11 7
 32 -50 -16
 33 44 5
 34 -5 48
 35 -5 -156
 36 -72 -91
 37 -83 28
 38 -94 -40
 39 91 76
 40 98 -28
 41 4 20
 42 84 44
 43 44 103
 44 67 -136
 45 20 114
 46 -103 44
 47 -72 -50
 48 -72 14
 49 -68 -136
 50 50 138
 51 8 -72
 52 29 -115
 53 164 69
 54 -66 -68
 55 -3 3
 56 59 41
 57 -19 -10
 58 19 -11
 59 17 -75
 60 0 -1
 61 88 -66
DEMAND_SECTION 
1 0 
2 47 
3 41 
4 43 
5 64 
6 24 
7 82 
8 44 
9 60 
10 48 
11 56 
12 55 
13 48 
14 95 
15 65 
16 41 
17 36 
18 39 
19 61 
20 60 
21 69 
22 29 
23 63 
24 60 
25 28 
26 95 
27 44 
28 58 
29 30 
30 31 
31 78 
32 32 
33 72 
34 28 
35 60 
36 32 
37 22 
38 54 
39 48 
40 53 
41 71 
42 64 
43 36 
44 50 
45 72 
46 42 
47 14 
48 52 
49 63 
50 46 
51 45 
52 64 
53 30 
54 49 
55 60 
56 58 
57 65 
58 59 
59 47 
60 52 
61 9 
DEPOT_SECTION 
 1  
 -1  
EOF 
