NAME : instance_32-triangle
COMMENT : VRPRDL projected to CVRP (closest location per customer; total_demand=6275, k_lb=9)
TYPE : CVRP
DIMENSION : 121
EDGE_WEIGHT_TYPE : EUC_2D 
CAPACITY : 750
NODE_COORD_SECTION 
 1 0 0
 2 -54 -116
 3 -8 -24
 4 99 7
 5 9 73
 6 -34 -15
 7 -59 21
 8 34 -75
 9 45 -33
 10 -22 -24
 11 -16 -2
 12 14 -40
 13 46 -123
 14 -8 45
 15 -11 59
 16 -9 -31
 17 -58 25
 18 -70 -82
 19 91 -19
 20 -20 30
 21 -50 54
 22 8 -10
 23 -26 -3
 24 129 125
 25 23 4
 26 2 -29
 27 -101 -7
 28 -2 -12
 29 5 -3
 30 0 48
 31 59 24
 32 -68 36
 33 54 -64
 34 -93 -58
 35 -24 1
 36 -133 69
 37 20 48
 38 -11 5
 39 23 -108
 40 11 22
 41 43 -14
 42 3 -8
 43 71 -2
 44 -2 -31
 45 -74 -8
 46 -12 45
 47 -4 -24
 48 3 -16
 49 2 -69
 50 25 5
 51 5 9
 52 -137 115
 53 -54 -96
 54 -17 12
 55 41 -24
 56 -16 -22
 57 119 -75
 58 -39 -5
 59 8 -45
 60 -15 -82
 61 81 114
 62 44 -24
 63 2 11
 64 -8 25
 65 17 -58
 66 -141 -16
 67 3 84
 68 -36 51
 69 0 0
 70 -17 -22
 71 55 87
 72 -81 -25
 73 -20 6
 74 -31 -31
 75 -108 21
 76 -92 -6
 77 13 -8
 78 0 77
 79 21 -21
 80 11 -16
 81 -26 17
 82 38 59
 83 -87 -51
 84 -69 -20
 85 -10 16
 86 18 40
 87 33 -2
 88 25 13
 89 140 -110
 90 -128 102
 91 -1 11
 92 -26 -156
 93 -16 -28
 94 -27 -10
 95 7 128
 96 108 82
 97 12 41
 98 -33 -2
 99 -1 0
 100 -8 20
 101 -25 -7
 102 -7 22
 103 8 -43
 104 -52 -5
 105 -12 97
 106 28 -42
 107 -6 -21
 108 -125 -3
 109 24 -5
 110 -8 -31
 111 -26 -35
 112 -6 -10
 113 -42 9
 114 47 -27
 115 104 65
 116 -74 -11
 117 -6 -6
 118 45 111
 119 17 105
 120 0 -7
 121 17 -4
DEMAND_SECTION 
1 0 
2 44 
3 69 
4 45 
5 59 
6 44 
7 67 
8 51 
9 70 
10 59 
11 46 
12 83 
13 53 
14 44 
15 36 
16 60 
17 61 
18 64 
19 34 
20 60 
21 53 
22 45 
23 66 
24 32 
25 32 
26 42 
27 68 
28 38 
29 41 
30 62 
31 54 
32 66 
33 53 
34 61 
35 51 
36 75 
37 58 
38 40 
39 60 
40 34 
41 66 
42 56 
43 42 
44 62 
45 57 
46 60 
47 32 
48 49 
49 61 
50 56 
51 38 
52 49 
53 50 
54 55 
55 67 
56 60 
57 41 
58 39 
59 43 
60 44 
61 36 
62 57 
63 79 
64 53 
65 28 
66 36 
67 47 
68 88 
69 62 
70 28 
71 57 
72 45 
73 40 
74 68 
75 48 
76 47 
77 62 
78 77 
79 34 
80 42 
81 71 
82 61 
83 54 
84 62 
85 77 
86 58 
87 40 
88 20 
89 49 
90 41 
91 68 
92 52 
93 45 
94 56 
95 83 
96 60 
97 31 
98 49 
99 58 
100 27 
101 36 
102 45 
103 41 
104 49 
105 27 
106 69 
107 62 
108 84 
109 50 
110 46 
111 55 
112 36 
113 43 
114 73 
115 35 
116 35 
117 63 
118 48 
119 60 
120 48 
121 67 
DEPOT_SECTION 
 1  
 -1  
EOF 
