NAME : instance_22-triangle
COMMENT : VRPRDL projected to CVRP (closest location per customer; total_demand=3046, k_lb=5)
TYPE : CVRP
DIMENSION : 61
EDGE_WEIGHT_TYPE : EUC_2D 
CAPACITY : 750
NODE_COORD_SECTION 
 1 0 0
 2 66 54
 3 5 -13
 4 -16 -10
 5 -19 -59
 6 -57 35
 7 -9 -71
 8 41 49
 9 -70 141
 10 -15 -66
 11 90 -61
 12 -116 2
 13 -118 -127
 14 15 -8
 15 6 9
 16 -72 165
 17 2 1
 18 3 97
 19 13 60
 20 12 9
 21 106 -112
 22 -93 -67
 23 27 -136
 24 -53 37
 25 -82 -4
 26 2 -9
 27 30 95
 28 45 -38
 29 31 -6
 30 21 -40
 31 -47 -83
 32 43 -11
 33 7 -9
 34 -2 8
 35 -1 -2
 36 -76 26
 37 -87 -20
 38 -6 -87
 39 -6 14
 40 15 83
 41 -71 0
 42 127 -55
 43 7 -13
 44 107 -52
 45 -1 4
 46 -23 62
 47 -14 0
 48 -25 29
 49 -52 38
 50 -78 151
 51 -108 104
 52 27 -38
 53 -29 -36
 54 93 143
 55 7 4
 56 39 26
 57 24 14
 58 -61 76
 59 37 172
 60 -29 -40
 61 2 113
DEMAND_SECTION 
1 0 
2 19 
3 23 
4 55 
5 44 
6 43 
7 61 
8 55 
9 70 
10 65 
11 45 
12 54 
13 70 
14 50 
15 17 
16 39 
17 43 
18 70 
19 71 
20 42 
21 58 
22 66 
23 65 
24 61 
25 54 
26 50 
27 51 
28 61 
29 60 
30 36 
31 56 
32 43 
33 55 
34 55 
35 53 
36 40 
37 54 
38 29 
39 42 
40 55 
41 17 
42 54 
43 29 
44 77 
45 58 
46 71 
47 49 
48 87 
49 58 
50 52 
51 34 
52 56 
53 41 
54 67 
55 70 
56 29 
57 54 
58 31 
59 57 
60 57 
61 18 
DEPOT_SECTION 
 1  
 -1  
EOF 
