NAME : instance_9-triangle
COMMENT : VRPRDL projected to CVRP (closest location per customer; total_demand=1069, k_lb=2)
TYPE : CVRP
DIMENSION : 21
EDGE_WEIGHT_TYPE : EUC_2D 
CAPACITY : 750
NODE_COORD_SECTION 
 1 0 0
 2 -35 81
 3 67 -140
 4 28 17
 5 -7 -105
 6 -85 -24
 7 -46 -82
 8 118 66
 9 62 -97
 10 -41 22
 11 -11 63
 12 0 0
 13 -28 -10
 14 2 -4
 15 -73 -26
 16 32 -41
 17 44 -14
 18 -41 19
 19 -15 -97
 20 -25 -11
 21 105 46
DEMAND_SECTION 
1 0 
2 56 
3 35 
4 61 
5 70 
6 55 
7 54 
8 55 
9 58 
10 31 
11 69 
12 33 
13 69 
14 68 
15 42 
16 63 
17 22 
18 58 
19 65 
20 58 
21 47 
DEPOT_SECTION 
 1  
 -1  
EOF 
