NAME : instance_24-triangle
COMMENT : VRPRDL projected to CVRP (closest location per customer; total_demand=2982, k_lb=4)
TYPE : CVRP
DIMENSION : 61
EDGE_WEIGHT_TYPE : EUC_2D 
CAPACITY : 750
NODE_COORD_SECTION 
 1 0 0
 2 3 -88
 3 -118 -77
 4 14 8
 5 -43 -17
 6 58 -56
 7 79 22
 8 -40 -25
 9 -18 29
 10 -123 65
 11 5 -25
 12 20 -17
 13 65 1
 14 -94 -24
 15 36 -16
 16 18 -54
 17 53 33
 18 -138 25
 19 -48 2
 20 -93 72
 21 -88 -92
 22 14 20
 23 -25 -54
 24 -31 -120
 25 44 -43
 26 2 -5
 27 3 -78
 28 -68 39
 29 -1 -17
 30 22 163
 31 -43 -134
 32 30 -9
 33 39 -24
 34 16 -19
 35 -38 -27
 36 -11 -9
 37 13 -43
 38 -61 -110
 39 19 7
 40 21 48
 41 6 18
 42 -32 -10
 43 -8 -8
 44 -5 -14
 45 -33 2
 46 -3 -60
 47 -3 11
 48 12 -12
 49 0 -3
 50 -86 17
 51 -73 14
 52 -74 83
 53 -89 130
 54 127 17
 55 -110 -22
 56 -61 27
 57 -10 -124
 58 -27 -10
 59 -20 -28
 60 -93 -40
 61 42 -15
DEMAND_SECTION 
1 0 
2 34 
3 72 
4 59 
5 60 
6 83 
7 67 
8 56 
9 55 
10 37 
11 51 
12 56 
13 43 
14 52 
15 58 
16 36 
17 65 
18 43 
19 55 
20 39 
21 33 
22 46 
23 75 
24 57 
25 23 
26 47 
27 54 
28 68 
29 34 
30 66 
31 64 
32 48 
33 68 
34 54 
35 63 
36 38 
37 39 
38 42 
39 41 
40 32 
41 47 
42 30 
43 26 
44 48 
45 34 
46 24 
47 69 
48 66 
49 48 
50 69 
51 67 
52 56 
53 35 
54 63 
55 51 
56 45 
57 34 
58 25 
59 37 
60 49 
61 46 
DEPOT_SECTION 
 1  
 -1  
EOF 
