NAME : instance_31-triangle
COMMENT : VRPRDL projected to CVRP (closest location per customer; total_demand=6034, k_lb=9)
TYPE : CVRP
DIMENSION : 121
EDGE_WEIGHT_TYPE : EUC_2D 
CAPACITY : 750
NODE_COORD_SECTION 
 1 0 0
 2 80 118
 3 -1 -19
 4 -26 -13
 5 37 90
 6 -37 2
 7 -23 23
 8 2 -1
 9 43 -6
 10 -6 -14
 11 -31 -22
 12 -16 -94
 13 -158 -32
 14 -8 -74
 15 -41 -154
 16 87 -52
 17 -96 -55
 18 -55 102
 19 -5 20
 20 2 -2
 21 5 -3
 22 19 0
 23 103 -14
 24 33 -2
 25 107 -5
 26 -29 48
 27 118 117
 28 49 -109
 29 16 33
 30 0 131
 31 -154 -82
 32 89 144
 33 -29 -99
 34 -68 -78
 35 -22 -49
 36 -9 43
 37 -45 -87
 38 24 106
 39 59 27
 40 29 -100
 41 32 43
 42 -5 82
 43 7 -2
 44 18 -26
 45 88 -71
 46 -10 154
 47 -81 -1
 48 -84 5
 49 -131 -24
 50 -6 -7
 51 -5 96
 52 -26 -14
 53 -3 -7
 54 -9 7
 55 74 -78
 56 45 -68
 57 19 -1
 58 35 -64
 59 -23 39
 60 -67 -40
 61 143 -71
 62 74 5
 63 50 -132
 64 -141 1
 65 -57 7
 66 -20 3
 67 -18 21
 68 -99 8
 69 -1 -84
 70 -41 120
 71 -8 0
 72 -4 -32
 73 -2 -36
 74 -106 23
 75 -1 -27
 76 0 -19
 77 -90 105
 78 35 46
 79 128 24
 80 -32 -6
 81 -12 57
 82 -121 16
 83 -87 4
 84 -34 87
 85 -36 -91
 86 54 74
 87 -96 57
 88 -6 2
 89 8 -6
 90 19 -1
 91 -8 -26
 92 -8 -4
 93 64 -33
 94 18 -6
 95 21 -24
 96 25 -30
 97 0 23
 98 -30 -54
 99 -34 -49
 100 6 -13
 101 9 14
 102 -1 -5
 103 3 -10
 104 115 -78
 105 63 -80
 106 32 43
 107 58 -49
 108 -12 -69
 109 -131 57
 110 -75 -79
 111 8 18
 112 -124 -78
 113 0 0
 114 71 -29
 115 -67 -33
 116 39 38
 117 50 -103
 118 10 135
 119 -38 -77
 120 -1 -3
 121 -83 -88
DEMAND_SECTION 
1 0 
2 47 
3 55 
4 58 
5 43 
6 77 
7 32 
8 39 
9 54 
10 61 
11 62 
12 68 
13 55 
14 64 
15 49 
16 74 
17 36 
18 55 
19 56 
20 44 
21 35 
22 40 
23 64 
24 40 
25 68 
26 38 
27 54 
28 64 
29 65 
30 50 
31 52 
32 55 
33 57 
34 57 
35 65 
36 36 
37 32 
38 42 
39 57 
40 50 
41 47 
42 46 
43 27 
44 57 
45 42 
46 49 
47 60 
48 34 
49 72 
50 92 
51 19 
52 49 
53 52 
54 69 
55 56 
56 48 
57 55 
58 35 
59 45 
60 57 
61 43 
62 51 
63 58 
64 33 
65 35 
66 53 
67 48 
68 72 
69 22 
70 45 
71 56 
72 43 
73 29 
74 41 
75 26 
76 46 
77 48 
78 64 
79 46 
80 51 
81 34 
82 13 
83 70 
84 31 
85 48 
86 57 
87 87 
88 66 
89 59 
90 34 
91 59 
92 47 
93 59 
94 45 
95 53 
96 35 
97 39 
98 44 
99 23 
100 79 
101 50 
102 49 
103 57 
104 62 
105 56 
106 47 
107 22 
108 49 
109 32 
110 26 
111 58 
112 90 
113 41 
114 29 
115 79 
116 49 
117 51 
118 45 
119 53 
120 67 
121 69 
DEPOT_SECTION 
 1  
 -1  
EOF 
