NAME : instance_0-triangle
COMMENT : VRPRDL projected to CVRP (closest location per customer; total_demand=750, k_lb=1)
TYPE : CVRP
DIMENSION : 16
EDGE_WEIGHT_TYPE : EUC_2D 
CAPACITY : 750
NODE_COORD_SECTION 
 1 0 0
 2 -14 -53
 3 -7 -6
 4 -32 -20
 5 -15 19
 6 138 35
 7 2 -3
 8 -32 139
 9 -1 3
 10 12 -28
 11 -51 12
 12 23 122
 13 8 -70
 14 -72 25
 15 11 9
 16 -42 22
DEMAND_SECTION 
1 0 
2 75 
3 52 
4 51 
5 29 
6 47 
7 47 
8 49 
9 64 
10 51 
11 53 
12 48 
13 40 
14 57 
15 58 
16 29 
DEPOT_SECTION 
 1  
 -1  
EOF 
