NAME : instance_11-triangle
COMMENT : VRPRDL projected to CVRP (closest location per customer; total_demand=1326, k_lb=2)
TYPE : CVRP
DIMENSION : 31
EDGE_WEIGHT_TYPE : EUC_2D 
CAPACITY : 750
NODE_COORD_SECTION 
 1 0 0
 2 1 -9
 3 -59 27
 4 10 -4
 5 67 -10
 6 -98 20
 7 31 14
 8 67 125
 9 18 -33
 10 4 -14
 11 99 18
 12 -19 -15
 13 -27 47
 14 -13 16
 15 109 7
 16 0 20
 17 23 26
 18 -22 5
 19 19 23
 20 -15 8
 21 98 -71
 22 22 15
 23 137 3
 24 -12 75
 25 -26 -49
 26 -23 148
 27 60 146
 28 -11 -9
 29 174 3
 30 -37 -79
 31 17 18
DEMAND_SECTION 
1 0 
2 62 
3 55 
4 45 
5 56 
6 46 
7 5 
8 34 
9 45 
10 27 
11 34 
12 32 
13 36 
14 52 
15 41 
16 21 
17 43 
18 55 
19 42 
20 33 
21 31 
22 45 
23 65 
24 73 
25 52 
26 46 
27 36 
28 66 
29 31 
30 57 
31 60 
DEPOT_SECTION 
 1  
 -1  
EOF 
