NAME : instance_3-triangle
COMMENT : VRPRDL projected to CVRP (closest location per customer; total_demand=711, k_lb=1)
TYPE : CVRP
DIMENSION : 16
EDGE_WEIGHT_TYPE : EUC_2D 
CAPACITY : 750
NODE_COORD_SECTION 
 1 0 0
 2 -2 9
 3 38 11
 4 4 6
 5 2 -3
 6 -67 8
 7 -142 13
 8 -23 101
 9 -36 18
 10 23 -98
 11 -30 -21
 12 57 21
 13 -13 -5
 14 -51 -42
 15 -59 16
 16 -102 82
DEMAND_SECTION 
1 0 
2 38 
3 42 
4 58 
5 34 
6 49 
7 55 
8 35 
9 48 
10 39 
11 61 
12 59 
13 44 
14 56 
15 71 
16 22 
DEPOT_SECTION 
 1  
 -1  
EOF 
