NAME : instance_37-triangle
COMMENT : VRPRDL projected to CVRP (closest location per customer; total_demand=5646, k_lb=8)
TYPE : CVRP
DIMENSION : 121
EDGE_WEIGHT_TYPE : EUC_2D 
CAPACITY : 750
NODE_COORD_SECTION 
 1 0 0
 2 30 -160
 3 -102 -89
 4 -38 -34
 5 -92 -9
 6 -6 -15
 7 -67 -137
 8 -20 -14
 9 -49 -72
 10 23 38
 11 2 22
 12 -32 66
 13 -17 -7
 14 -5 3
 15 -3 18
 16 22 -17
 17 -18 -21
 18 -105 -53
 19 12 -8
 20 8 -39
 21 -77 86
 22 92 -41
 23 94 44
 24 60 -74
 25 -22 -63
 26 146 33
 27 -66 -22
 28 -38 110
 29 108 127
 30 -112 58
 31 31 55
 32 -78 105
 33 10 35
 34 -1 -2
 35 -131 -14
 36 -26 145
 37 -1 -100
 38 -63 -11
 39 -2 -5
 40 -18 135
 41 76 -119
 42 -33 -2
 43 -56 -53
 44 1 19
 45 0 0
 46 -89 11
 47 -47 5
 48 0 0
 49 -146 -71
 50 85 0
 51 45 97
 52 -119 89
 53 -138 -4
 54 -2 -9
 55 0 0
 56 139 49
 57 31 -60
 58 -9 162
 59 39 57
 60 3 -28
 61 48 19
 62 0 26
 63 -97 69
 64 53 7
 65 -34 112
 66 125 -61
 67 -6 6
 68 62 -1
 69 29 -3
 70 -67 40
 71 -87 66
 72 -106 11
 73 3 10
 74 -100 -35
 75 -55 -30
 76 9 154
 77 -101 -37
 78 -4 -2
 79 -5 16
 80 21 0
 81 4 8
 82 -92 57
 83 57 1
 84 11 11
 85 14 3
 86 75 -30
 87 -42 4
 88 -86 -40
 89 86 -77
 90 142 30
 91 -32 -44
 92 85 0
 93 104 81
 94 19 82
 95 30 125
 96 92 -70
 97 -32 22
 98 -27 -11
 99 73 -42
 100 0 112
 101 45 -19
 102 -46 40
 103 -10 -57
 104 -9 -17
 105 16 6
 106 77 94
 107 14 42
 108 0 7
 109 -55 -118
 110 -131 82
 111 106 -9
 112 4 0
 113 -26 134
 114 -1 2
 115 -55 12
 116 105 -108
 117 -40 69
 118 106 29
 119 6 26
 120 2 4
 121 -13 85
DEMAND_SECTION 
1 0 
2 54 
3 46 
4 24 
5 48 
6 33 
7 40 
8 36 
9 24 
10 36 
11 62 
12 53 
13 50 
14 54 
15 51 
16 53 
17 71 
18 71 
19 54 
20 41 
21 18 
22 47 
23 47 
24 56 
25 52 
26 59 
27 59 
28 49 
29 49 
30 32 
31 50 
32 46 
33 45 
34 36 
35 27 
36 45 
37 41 
38 72 
39 49 
40 39 
41 54 
42 64 
43 56 
44 58 
45 51 
46 61 
47 39 
48 67 
49 30 
50 46 
51 59 
52 36 
53 72 
54 59 
55 35 
56 43 
57 54 
58 66 
59 55 
60 41 
61 37 
62 50 
63 36 
64 81 
65 11 
66 61 
67 42 
68 66 
69 51 
70 51 
71 63 
72 42 
73 41 
74 38 
75 36 
76 33 
77 30 
78 58 
79 66 
80 67 
81 46 
82 43 
83 32 
84 51 
85 38 
86 48 
87 41 
88 41 
89 50 
90 57 
91 26 
92 30 
93 54 
94 55 
95 35 
96 54 
97 57 
98 26 
99 30 
100 43 
101 24 
102 50 
103 28 
104 65 
105 65 
106 33 
107 59 
108 11 
109 46 
110 89 
111 58 
112 24 
113 70 
114 53 
115 29 
116 47 
117 57 
118 35 
119 17 
120 50 
121 54 
DEPOT_SECTION 
 1  
 -1  
EOF 
