NAME : instance_14-triangle
COMMENT : VRPRDL projected to CVRP (closest location per customer; total_demand=1592, k_lb=3)
TYPE : CVRP
DIMENSION : 31
EDGE_WEIGHT_TYPE : EUC_2D 
CAPACITY : 750
NODE_COORD_SECTION 
 1 0 0
 2 53 108
 3 7 -6
 4 7 -74
 5 76 70
 6 -109 27
 7 2 3
 8 -24 -15
 9 64 -20
 10 -50 17
 11 41 57
 12 99 12
 13 -9 -89
 14 82 109
 15 -37 -47
 16 -86 -48
 17 5 -5
 18 53 -2
 19 43 -10
 20 -1 -72
 21 -106 -4
 22 -45 -86
 23 -3 20
 24 38 -31
 25 -49 -98
 26 30 -33
 27 -18 -23
 28 47 10
 29 -49 128
 30 16 19
 31 -21 -57
DEMAND_SECTION 
1 0 
2 46 
3 70 
4 88 
5 36 
6 43 
7 53 
8 50 
9 53 
10 49 
11 66 
12 57 
13 47 
14 48 
15 44 
16 49 
17 53 
18 89 
19 39 
20 53 
21 38 
22 51 
23 61 
24 71 
25 30 
26 35 
27 59 
28 31 
29 51 
30 60 
31 72 
DEPOT_SECTION 
 1  
 -1  
EOF 
