NAME : instance_17-triangle
COMMENT : VRPRDL projected to CVRP (closest location per customer; total_demand=1683, k_lb=3)
TYPE : CVRP
DIMENSION : 31
EDGE_WEIGHT_TYPE : EUC_2D 
CAPACITY : 750
NODE_COORD_SECTION 
 1 0 0
 2 63 -34
 3 0 84
 4 -7 30
 5 -91 -43
 6 -36 -97
 7 0 20
 8 -24 -37
 9 16 4
 10 -112 -14
 11 -97 -71
 12 -26 -59
 13 -24 90
 14 70 -28
 15 -13 -76
 16 71 38
 17 -34 18
 18 -30 83
 19 17 -82
 20 25 -87
 21 54 -32
 22 130 41
 23 64 -109
 24 -77 133
 25 -40 53
 26 -28 -23
 27 29 44
 28 -4 -132
 29 -46 -24
 30 -123 -1
 31 -19 15
DEMAND_SECTION 
1 0 
2 56 
3 30 
4 77 
5 50 
6 33 
7 53 
8 74 
9 59 
10 48 
11 70 
12 39 
13 28 
14 33 
15 80 
16 53 
17 55 
18 48 
19 83 
20 58 
21 33 
22 69 
23 37 
24 84 
25 79 
26 86 
27 36 
28 52 
29 69 
30 58 
31 53 
DEPOT_SECTION 
 1  
 -1  
EOF 
