NAME : instance_7-triangle
COMMENT : VRPRDL projected to CVRP (closest location per customer; total_demand=969, k_lb=2)
TYPE : CVRP
DIMENSION : 21
EDGE_WEIGHT_TYPE : EUC_2D 
CAPACITY : 750
NODE_COORD_SECTION 
 1 0 0
 2 -8 -9
 3 -38 108
 4 -130 71
 5 -108 -2
 6 -9 22
 7 -3 -20
 8 4 -16
 9 37 69
 10 -17 70
 11 0 34
 12 19 19
 13 32 158
 14 65 53
 15 -47 87
 16 83 -58
 17 -31 -17
 18 4 45
 19 -1 113
 20 10 159
 21 6 1
DEMAND_SECTION 
1 0 
2 33 
3 50 
4 39 
5 65 
6 49 
7 80 
8 58 
9 40 
10 48 
11 75 
12 48 
13 41 
14 43 
15 47 
16 38 
17 19 
18 53 
19 41 
20 52 
21 50 
DEPOT_SECTION 
 1  
 -1  
EOF 
