NAME : instance_12-triangle
COMMENT : VRPRDL projected to CVRP (closest location per customer; total_demand=1568, k_lb=3)
TYPE : CVRP
DIMENSION : 31
EDGE_WEIGHT_TYPE : EUC_2D 
CAPACITY : 750
NODE_COORD_SECTION 
 1 0 0
 2 1 -42
 3 -17 23
 4 -127 -26
 5 14 -41
 6 20 -7
 7 -36 18
 8 0 43
 9 -11 -48
 10 83 -2
 11 -28 0
 12 -24 -49
 13 132 18
 14 32 1
 15 29 5
 16 15 11
 17 -89 -79
 18 -130 -110
 19 46 -139
 20 -16 5
 21 36 -6
 22 12 -4
 23 -84 103
 24 -38 28
 25 19 -65
 26 -9 64
 27 16 17
 28 -13 25
 29 3 0
 30 -92 90
 31 37 19
DEMAND_SECTION 
1 0 
2 58 
3 70 
4 66 
5 57 
6 28 
7 75 
8 55 
9 55 
10 65 
11 59 
12 48 
13 51 
14 40 
15 37 
16 49 
17 50 
18 60 
19 34 
20 66 
21 53 
22 66 
23 42 
24 56 
25 34 
26 69 
27 46 
28 32 
29 16 
30 56 
31 75 
DEPOT_SECTION 
 1  
 -1  
EOF 
