NAME : instance_27-triangle
TYPE : CVRP
COMMENT : Simplified projection from VRPRDL JSON using first location of each real customer
DIMENSION : 61
EDGE_WEIGHT_TYPE : EUC_2D
CAPACITY : 750

NODE_COORD_SECTION
1 0 0
2 -67 -17
3 -5 3
4 2 -11
5 11 19
6 30 -126
7 -103 -41
8 0 1
9 7 15
10 -6 11
11 -71 15
12 -25 -159
13 -24 12
14 -68 53
15 -101 -131
16 0 -25
17 39 152
18 -14 45
19 -36 -88
20 -14 10
21 47 -173
22 -84 -56
23 -116 19
24 51 43
25 -7 -14
26 14 -88
27 -104 10
28 0 -12
29 4 -15
30 -4 -14
31 -63 66
32 -117 20
33 152 -63
34 -5 -31
35 14 -167
36 -131 -102
37 25 13
38 19 66
39 -59 41
40 -56 -49
41 -9 67
42 -126 -113
43 -21 92
44 30 -89
45 -96 67
46 13 -3
47 133 -90
48 -25 42
49 -5 8
50 0 11
51 10 -2
52 172 -46
53 22 -28
54 -3 1
55 57 -31
56 14 46
57 -29 34
58 6 51
59 37 42
60 128 -90
61 -141 -35

DEMAND_SECTION
1 0
2 12
3 47
4 39
5 68
6 40
7 35
8 64
9 15
10 37
11 50
12 36
13 48
14 72
15 43
16 45
17 46
18 36
19 56
20 56
21 43
22 49
23 48
24 10
25 37
26 25
27 51
28 26
29 30
30 68
31 34
32 47
33 41
34 33
35 34
36 31
37 45
38 39
39 57
40 55
41 53
42 57
43 18
44 45
45 36
46 9
47 10
48 43
49 45
50 61
51 47
52 52
53 24
54 67
55 76
56 51
57 41
58 58
59 63
60 68
61 50

DEPOT_SECTION
1
-1
EOF
