NAME : instance_8-triangle
TYPE : CVRP
COMMENT : Simplified projection from VRPRDL JSON using first location of each real customer
DIMENSION : 21
EDGE_WEIGHT_TYPE : EUC_2D
CAPACITY : 750

NODE_COORD_SECTION
1 0 0
2 99 56
3 113 -102
4 -41 18
5 -55 -162
6 26 -49
7 -31 -1
8 74 94
9 -41 -16
10 81 123
11 -1 3
12 -63 55
13 -19 -8
14 2 -20
15 -14 19
16 74 -68
17 -19 25
18 40 -77
19 58 78
20 61 72
21 27 -4

DEMAND_SECTION
1 0
2 60
3 62
4 74
5 36
6 55
7 45
8 30
9 32
10 63
11 55
12 18
13 46
14 45
15 44
16 82
17 43
18 58
19 43
20 43
21 61

DEPOT_SECTION
1
-1
EOF
