NAME : instance_15-triangle
TYPE : CVRP
COMMENT : Simplified projection from VRPRDL JSON using first location of each real customer
DIMENSION : 31
EDGE_WEIGHT_TYPE : EUC_2D
CAPACITY : 750

NODE_COORD_SECTION
1 0 0
2 -38 1
3 0 -16
4 34 112
5 91 -21
6 4 -3
7 8 158
8 8 -2
9 29 -10
10 -96 -29
11 60 148
12 -39 -19
13 -80 -94
14 44 -29
15 -115 43
16 27 24
17 3 5
18 -145 -39
19 12 19
20 4 0
21 3 -82
22 -1 1
23 13 23
24 89 84
25 16 128
26 -158 -19
27 98 50
28 1 -16
29 131 -15
30 -53 18
31 28 -61

DEMAND_SECTION
1 0
2 48
3 56
4 48
5 35
6 56
7 48
8 42
9 55
10 42
11 64
12 44
13 31
14 36
15 33
16 11
17 64
18 67
19 62
20 61
21 40
22 49
23 63
24 41
25 69
26 44
27 19
28 70
29 42
30 82
31 47

DEPOT_SECTION
1
-1
EOF
