NAME : instance_11-triangle
TYPE : CVRP
COMMENT : Simplified projection from VRPRDL JSON using first location of each real customer
DIMENSION : 31
EDGE_WEIGHT_TYPE : EUC_2D
CAPACITY : 750

NODE_COORD_SECTION
1 0 0
2 91 2
3 -59 27
4 -13 -34
5 79 -9
6 -98 20
7 6 -45
8 67 125
9 18 -33
10 -26 16
11 99 18
12 -25 -45
13 -27 47
14 -13 16
15 128 45
16 0 20
17 23 26
18 -20 -47
19 19 23
20 -11 19
21 98 -71
22 22 15
23 137 3
24 -147 -36
25 -26 -49
26 -23 148
27 60 146
28 -16 -28
29 174 3
30 -37 -79
31 92 47

DEMAND_SECTION
1 0
2 62
3 55
4 45
5 56
6 46
7 5
8 34
9 45
10 27
11 34
12 32
13 36
14 52
15 41
16 21
17 43
18 55
19 42
20 33
21 31
22 45
23 65
24 73
25 52
26 46
27 36
28 66
29 31
30 57
31 60

DEPOT_SECTION
1
-1
EOF
