NAME : instance_29-triangle
TYPE : CVRP
COMMENT : Simplified projection from VRPRDL JSON using first location of each real customer
DIMENSION : 61
EDGE_WEIGHT_TYPE : EUC_2D
CAPACITY : 750

NODE_COORD_SECTION
1 0 0
2 85 -135
3 -61 -24
4 -18 -70
5 167 39
6 80 -33
7 -121 -130
8 3 -23
9 90 124
10 30 17
11 -12 7
12 74 -4
13 59 55
14 18 -150
15 152 82
16 3 -46
17 70 10
18 -15 3
19 -69 -15
20 -58 121
21 41 -76
22 -86 37
23 3 15
24 44 61
25 -64 -92
26 89 -139
27 -77 22
28 2 4
29 -35 -12
30 -46 -103
31 28 -158
32 -124 122
33 -27 6
34 -63 10
35 -77 120
36 -78 -128
37 103 8
38 77 99
39 -77 91
40 24 -154
41 3 76
42 7 136
43 133 37
44 -33 -12
45 14 40
46 138 -77
47 43 -38
48 33 105
49 115 44
50 -24 -108
51 -143 -16
52 120 20
53 -56 -83
54 -51 42
55 -7 2
56 80 16
57 -11 -32
58 73 33
59 -101 -115
60 -8 -87
61 9 9

DEMAND_SECTION
1 0
2 67
3 32
4 46
5 54
6 50
7 52
8 53
9 57
10 35
11 60
12 68
13 27
14 47
15 42
16 20
17 68
18 46
19 50
20 34
21 46
22 60
23 51
24 17
25 55
26 50
27 19
28 73
29 52
30 68
31 22
32 46
33 43
34 50
35 82
36 47
37 60
38 63
39 50
40 55
41 59
42 42
43 41
44 20
45 29
46 22
47 29
48 45
49 46
50 51
51 51
52 59
53 31
54 47
55 66
56 58
57 55
58 32
59 45
60 69
61 51

DEPOT_SECTION
1
-1
EOF
