NAME : instance_35-triangle
TYPE : CVRP
COMMENT : Simplified projection from VRPRDL JSON using first location of each real customer
DIMENSION : 121
EDGE_WEIGHT_TYPE : EUC_2D
CAPACITY : 750

NODE_COORD_SECTION
1 0 0
2 -53 153
3 82 -107
4 25 -22
5 -8 -9
6 -22 39
7 -26 154
8 86 -18
9 -6 16
10 -38 -21
11 5 -46
12 -88 -94
13 4 2
14 83 111
15 -9 108
16 -159 20
17 -89 -34
18 -65 63
19 -15 175
20 4 -38
21 23 124
22 1 127
23 -7 -171
24 2 2
25 -117 -78
26 86 17
27 -78 106
28 -60 151
29 -16 -110
30 98 66
31 -54 -88
32 158 -12
33 -118 51
34 -154 -29
35 21 -16
36 88 -103
37 -55 -94
38 -6 3
39 77 28
40 -32 -65
41 -65 103
42 27 27
43 15 46
44 -71 -70
45 -33 3
46 -105 -121
47 35 3
48 -74 -20
49 -3 21
50 22 35
51 16 38
52 93 136
53 94 117
54 74 105
55 52 -20
56 -44 -2
57 -7 50
58 88 -48
59 -112 -140
60 -5 -73
61 -18 -1
62 -1 5
63 99 0
64 38 -144
65 0 85
66 1 -78
67 54 -59
68 62 79
69 26 -99
70 3 -12
71 101 21
72 131 98
73 -32 -168
74 38 -12
75 -33 37
76 -124 95
77 79 -9
78 57 33
79 29 -71
80 91 -64
81 -34 72
82 82 -93
83 -67 -110
84 29 101
85 -13 -14
86 -33 54
87 90 11
88 -2 -1
89 109 118
90 -93 16
91 112 -40
92 -28 80
93 -85 -103
94 -37 7
95 -3 -1
96 62 45
97 -44 94
98 11 -4
99 -108 115
100 8 -6
101 -79 -141
102 -2 -82
103 -128 87
104 57 50
105 26 15
106 69 -63
107 -86 -5
108 -5 -25
109 87 1
110 57 107
111 0 0
112 -46 -57
113 13 -2
114 149 -38
115 -50 168
116 -30 -20
117 -67 88
118 0 109
119 37 -49
120 -77 101
121 -127 -125

DEMAND_SECTION
1 0
2 19
3 74
4 55
5 47
6 49
7 40
8 36
9 47
10 47
11 41
12 66
13 45
14 44
15 62
16 39
17 44
18 37
19 54
20 42
21 60
22 26
23 54
24 85
25 42
26 68
27 47
28 45
29 25
30 56
31 45
32 58
33 30
34 32
35 45
36 61
37 59
38 49
39 56
40 64
41 41
42 28
43 44
44 54
45 45
46 55
47 81
48 29
49 39
50 69
51 52
52 51
53 65
54 46
55 44
56 44
57 40
58 82
59 42
60 73
61 47
62 71
63 67
64 28
65 74
66 62
67 52
68 48
69 60
70 67
71 64
72 7
73 61
74 36
75 34
76 72
77 56
78 46
79 62
80 43
81 65
82 59
83 22
84 28
85 62
86 37
87 70
88 39
89 40
90 60
91 30
92 25
93 35
94 30
95 67
96 45
97 66
98 47
99 56
100 55
101 48
102 37
103 20
104 45
105 36
106 43
107 69
108 61
109 52
110 61
111 35
112 48
113 65
114 68
115 51
116 44
117 14
118 49
119 22
120 78
121 24

DEPOT_SECTION
1
-1
EOF
