NAME : instance_28-triangle
TYPE : CVRP
COMMENT : Simplified projection from VRPRDL JSON using first location of each real customer
DIMENSION : 61
EDGE_WEIGHT_TYPE : EUC_2D
CAPACITY : 750

NODE_COORD_SECTION
1 0 0
2 -87 49
3 -33 -35
4 9 2
5 -9 -83
6 -139 24
7 1 35
8 -47 -93
9 145 26
10 39 61
11 99 26
12 75 -22
13 -88 -88
14 -38 32
15 150 59
16 -63 -123
17 -49 -48
18 3 5
19 11 20
20 -61 51
21 3 10
22 -91 -39
23 76 20
24 -25 10
25 34 40
26 -31 92
27 -18 -85
28 157 -81
29 -32 32
30 -21 164
31 123 30
32 -8 106
33 7 -145
34 -32 73
35 -19 -63
36 -62 -81
37 33 -8
38 4 -6
39 -82 68
40 -159 73
41 2 -47
42 2 -1
43 -59 55
44 -160 -63
45 -85 73
46 3 102
47 -153 88
48 -146 51
49 -26 173
50 -35 -93
51 78 72
52 38 73
53 -3 139
54 -4 -64
55 20 47
56 -43 7
57 28 15
58 80 160
59 74 114
60 -123 -116
61 -8 -49

DEMAND_SECTION
1 0
2 55
3 52
4 84
5 39
6 42
7 43
8 65
9 41
10 45
11 52
12 43
13 50
14 51
15 31
16 37
17 64
18 82
19 65
20 51
21 72
22 45
23 69
24 44
25 36
26 65
27 31
28 23
29 44
30 38
31 45
32 59
33 39
34 55
35 79
36 41
37 48
38 43
39 50
40 51
41 38
42 18
43 63
44 36
45 49
46 59
47 62
48 28
49 52
50 60
51 41
52 56
53 26
54 66
55 37
56 27
57 23
58 52
59 39
60 28
61 65

DEPOT_SECTION
1
-1
EOF
