NAME : instance_39-triangle
TYPE : CVRP
COMMENT : Simplified projection from VRPRDL JSON using first location of each real customer
DIMENSION : 121
EDGE_WEIGHT_TYPE : EUC_2D
CAPACITY : 750

NODE_COORD_SECTION
1 0 0
2 21 -83
3 60 19
4 55 163
5 -7 -24
6 -82 114
7 52 -9
8 106 -6
9 2 -25
10 139 -21
11 105 4
12 -1 153
13 125 27
14 -15 -32
15 -54 134
16 -21 -18
17 -43 -50
18 11 5
19 115 -33
20 76 -7
21 79 51
22 34 -1
23 -18 3
24 -84 -21
25 14 65
26 -51 -59
27 30 -97
28 -77 -134
29 -147 62
30 35 -64
31 34 69
32 13 -5
33 35 -72
34 -28 44
35 -73 -76
36 -92 -38
37 36 7
38 -134 37
39 -61 -64
40 -136 -58
41 134 -32
42 -14 -71
43 88 -50
44 66 14
45 -137 42
46 -67 51
47 45 7
48 -86 -14
49 -134 90
50 -22 -32
51 18 22
52 75 -33
53 73 47
54 -36 84
55 129 -40
56 -58 57
57 1 -3
58 -32 -111
59 82 -88
60 45 -71
61 12 -10
62 15 23
63 131 -97
64 -39 53
65 27 10
66 -70 -5
67 5 -45
68 -77 40
69 143 -29
70 -26 -3
71 0 0
72 34 89
73 -63 86
74 -52 20
75 47 16
76 -6 -2
77 26 -13
78 -5 10
79 69 12
80 25 -5
81 33 -112
82 -24 24
83 1 -4
84 -121 -34
85 -7 6
86 -123 -72
87 -79 99
88 -50 0
89 -91 -103
90 7 -108
91 8 -79
92 -76 76
93 153 5
94 -64 -15
95 -115 -100
96 25 11
97 52 47
98 -24 23
99 131 31
100 -32 58
101 50 11
102 -133 1
103 52 -19
104 11 -22
105 -110 -83
106 45 -79
107 80 52
108 52 -8
109 39 -10
110 13 36
111 -98 -140
112 24 42
113 41 87
114 -37 -25
115 25 58
116 74 -74
117 11 9
118 65 -84
119 53 -57
120 -72 8
121 68 -19

DEMAND_SECTION
1 0
2 60
3 28
4 54
5 57
6 30
7 24
8 59
9 68
10 48
11 33
12 42
13 40
14 79
15 20
16 42
17 39
18 29
19 66
20 64
21 58
22 27
23 52
24 36
25 15
26 49
27 47
28 48
29 54
30 14
31 61
32 19
33 50
34 48
35 46
36 41
37 50
38 44
39 45
40 42
41 55
42 53
43 32
44 63
45 38
46 55
47 44
48 47
49 58
50 73
51 35
52 45
53 54
54 72
55 9
56 42
57 44
58 48
59 31
60 47
61 53
62 21
63 39
64 41
65 49
66 48
67 59
68 56
69 31
70 88
71 53
72 42
73 53
74 40
75 43
76 36
77 50
78 69
79 60
80 73
81 57
82 54
83 48
84 33
85 52
86 29
87 35
88 47
89 62
90 54
91 31
92 47
93 47
94 22
95 39
96 55
97 27
98 58
99 42
100 26
101 46
102 26
103 44
104 36
105 61
106 42
107 54
108 29
109 76
110 32
111 41
112 71
113 49
114 65
115 47
116 49
117 22
118 20
119 51
120 53
121 30

DEPOT_SECTION
1
-1
EOF
