NAME : instance_32-triangle
TYPE : CVRP
COMMENT : Simplified projection from VRPRDL JSON using first location of each real customer
DIMENSION : 121
EDGE_WEIGHT_TYPE : EUC_2D
CAPACITY : 750

NODE_COORD_SECTION
1 0 0
2 -54 -116
3 -8 -24
4 144 -63
5 31 83
6 -18 -59
7 -81 -28
8 13 -91
9 45 -33
10 -13 39
11 33 17
12 14 -40
13 46 -123
14 -8 45
15 -11 59
16 -9 -31
17 -58 25
18 -82 -89
19 91 -19
20 5 40
21 -60 120
22 8 -10
23 -26 -3
24 129 125
25 23 4
26 9 -77
27 -165 0
28 -2 -12
29 4 -7
30 -12 51
31 59 24
32 -68 36
33 54 -64
34 -93 -58
35 -24 -5
36 -133 69
37 20 48
38 -40 -2
39 -52 -101
40 20 21
41 43 -14
42 3 -8
43 104 -31
44 -11 -32
45 -116 13
46 23 41
47 -4 -24
48 26 9
49 -69 -71
50 25 5
51 5 9
52 -137 115
53 -151 -69
54 -17 12
55 64 -85
56 -19 -20
57 119 -75
58 -98 -4
59 13 -80
60 -6 -150
61 81 114
62 44 -24
63 2 11
64 -8 25
65 17 -58
66 -141 -16
67 3 84
68 -36 51
69 0 0
70 -17 -22
71 63 83
72 -91 -14
73 24 -31
74 -31 -31
75 -129 31
76 -92 -6
77 13 -8
78 -22 131
79 21 -21
80 11 -16
81 -26 17
82 38 59
83 -115 -30
84 -69 -20
85 14 -64
86 18 40
87 1 -62
88 48 12
89 140 -110
90 -128 102
91 -22 -14
92 -26 -156
93 -16 -28
94 -27 -10
95 7 128
96 108 82
97 13 42
98 -33 -2
99 -1 0
100 -8 20
101 -33 21
102 20 20
103 -46 -36
104 -52 -5
105 2 116
106 28 -42
107 -6 -21
108 -138 35
109 24 -5
110 22 -69
111 -26 -35
112 -6 -10
113 -42 9
114 52 -33
115 104 65
116 -88 1
117 -6 -6
118 66 153
119 17 105
120 0 -7
121 -23 -1

DEMAND_SECTION
1 0
2 44
3 69
4 45
5 59
6 44
7 67
8 51
9 70
10 59
11 46
12 83
13 53
14 44
15 36
16 60
17 61
18 64
19 34
20 60
21 53
22 45
23 66
24 32
25 32
26 42
27 68
28 38
29 41
30 62
31 54
32 66
33 53
34 61
35 51
36 75
37 58
38 40
39 60
40 34
41 66
42 56
43 42
44 62
45 57
46 60
47 32
48 49
49 61
50 56
51 38
52 49
53 50
54 55
55 67
56 60
57 41
58 39
59 43
60 44
61 36
62 57
63 79
64 53
65 28
66 36
67 47
68 88
69 62
70 28
71 57
72 45
73 40
74 68
75 48
76 47
77 62
78 77
79 34
80 42
81 71
82 61
83 54
84 62
85 77
86 58
87 40
88 20
89 49
90 41
91 68
92 52
93 45
94 56
95 83
96 60
97 31
98 49
99 58
100 27
101 36
102 45
103 41
104 49
105 27
106 69
107 62
108 84
109 50
110 46
111 55
112 36
113 43
114 73
115 35
116 35
117 63
118 48
119 60
120 48
121 67

DEPOT_SECTION
1
-1
EOF
