NAME : instance_16-triangle
TYPE : CVRP
COMMENT : Simplified projection from VRPRDL JSON using first location of each real customer
DIMENSION : 31
EDGE_WEIGHT_TYPE : EUC_2D
CAPACITY : 750

NODE_COORD_SECTION
1 0 0
2 80 -11
3 45 62
4 67 -109
5 83 -43
6 -90 2
7 -119 -63
8 0 -69
9 16 -140
10 -96 -77
11 -52 -60
12 2 0
13 11 1
14 160 5
15 141 -69
16 7 -58
17 -3 11
18 -28 -47
19 3 -3
20 91 -56
21 96 -103
22 8 23
23 48 0
24 0 57
25 -75 -3
26 63 13
27 -21 3
28 -66 -108
29 101 11
30 141 85
31 -98 119

DEMAND_SECTION
1 0
2 44
3 29
4 79
5 69
6 40
7 29
8 16
9 54
10 91
11 60
12 32
13 54
14 48
15 38
16 32
17 43
18 74
19 35
20 58
21 49
22 47
23 32
24 79
25 48
26 50
27 41
28 41
29 44
30 27
31 68

DEPOT_SECTION
1
-1
EOF
