NAME : instance_20-triangle
TYPE : CVRP
COMMENT : Simplified projection from VRPRDL JSON using first location of each real customer
DIMENSION : 61
EDGE_WEIGHT_TYPE : EUC_2D
CAPACITY : 750

NODE_COORD_SECTION
1 0 0
2 -86 -133
3 -94 -76
4 -1 -4
5 -49 77
6 -46 -8
7 -71 11
8 16 0
9 -12 -92
10 31 2
11 56 -71
12 58 104
13 -37 52
14 -43 69
15 -3 -88
16 -3 -18
17 -63 -58
18 0 -97
19 -122 -75
20 -141 -35
21 87 84
22 57 85
23 -11 -37
24 -7 5
25 -32 -18
26 5 82
27 -23 -17
28 3 -41
29 21 -34
30 161 25
31 -50 40
32 0 13
33 86 -104
34 -6 -35
35 172 25
36 -13 146
37 9 78
38 42 -158
39 67 40
40 -117 -47
41 -41 -88
42 -19 13
43 -1 10
44 9 14
45 23 8
46 96 -115
47 45 -49
48 22 9
49 20 13
50 74 -17
51 -108 -26
52 22 35
53 44 10
54 -133 109
55 67 -38
56 -11 9
57 3 -9
58 7 141
59 136 93
60 -60 35
61 -141 57

DEMAND_SECTION
1 0
2 34
3 40
4 39
5 51
6 62
7 81
8 46
9 43
10 57
11 54
12 56
13 20
14 66
15 26
16 69
17 46
18 36
19 30
20 41
21 60
22 44
23 56
24 65
25 36
26 72
27 47
28 52
29 27
30 13
31 38
32 51
33 58
34 52
35 50
36 27
37 22
38 54
39 51
40 53
41 58
42 61
43 76
44 79
45 35
46 51
47 71
48 57
49 50
50 52
51 10
52 74
53 66
54 78
55 18
56 70
57 55
58 58
59 22
60 54
61 37

DEPOT_SECTION
1
-1
EOF
