NAME : instance_36-triangle
TYPE : CVRP
COMMENT : Simplified projection from VRPRDL JSON using first location of each real customer
DIMENSION : 120
EDGE_WEIGHT_TYPE : EUC_2D
CAPACITY : 750

NODE_COORD_SECTION
1 0 0
2 -10 6
3 142 -38
4 -13 0
5 -10 -28
6 -26 -13
7 -68 -123
8 12 -37
9 0 -3
10 -59 79
11 135 -2
12 30 117
13 133 -29
14 116 -11
15 -92 -1
16 -8 9
17 -33 40
18 63 82
19 -5 18
20 42 70
21 8 -25
22 -53 68
23 52 -75
24 60 -103
25 121 -65
26 -5 -38
27 136 -83
28 -139 56
29 67 -82
30 -43 -148
31 -57 -145
32 -100 -22
33 -90 82
34 48 -28
35 22 -34
36 -97 -48
37 12 -9
38 14 -37
39 -141 93
40 36 4
41 -29 48
42 -89 -3
43 -111 22
44 -4 5
45 -13 -57
46 -32 -52
47 -44 10
48 -33 -28
49 -49 21
50 -108 15
51 86 -103
52 -18 -42
53 19 -48
54 -5 -21
55 -42 -7
56 36 -21
57 -23 -110
58 31 -26
59 96 28
60 2 -26
61 -61 33
62 30 3
63 -90 65
64 57 71
65 -66 54
66 15 -2
67 48 28
68 39 -98
69 -52 124
70 87 66
71 4 29
72 11 -3
73 -14 -41
74 20 -165
75 -6 -22
76 -55 -169
77 36 45
78 27 -94
79 -16 14
80 -77 50
81 13 7
82 122 97
83 55 -110
84 -29 140
85 -88 13
86 19 -3
87 78 50
88 -83 -61
89 -63 -79
90 -22 -168
91 -29 -23
92 48 -137
93 94 48
94 -16 -35
95 152 -42
96 -68 -12
97 -55 8
98 27 -36
99 41 23
100 -24 158
101 -89 -48
102 66 1
103 -60 -48
104 -37 20
105 -132 5
106 -22 -17
107 -41 -6
108 2 -2
109 63 109
110 -137 60
111 117 -102
112 -36 -41
113 -33 -114
114 -136 -95
115 110 -126
116 13 17
117 57 -103
118 -46 172
119 0 -139
120 -17 114

DEMAND_SECTION
1 0
2 54
3 53
4 60
5 62
6 71
7 67
8 84
9 43
10 59
11 61
12 33
13 44
14 39
15 41
16 53
17 65
18 57
19 39
20 31
21 48
22 47
23 48
24 19
25 63
26 57
27 63
28 38
29 27
30 67
31 59
32 57
33 56
34 52
35 41
36 32
37 33
38 45
39 51
40 54
41 37
42 75
43 66
44 61
45 29
46 39
47 44
48 49
49 82
50 64
51 41
52 26
53 53
54 59
55 15
56 44
57 17
58 57
59 16
60 37
61 52
62 50
63 66
64 75
65 37
66 23
67 55
68 38
69 72
70 62
71 52
72 39
73 54
74 39
75 66
76 27
77 58
78 64
79 81
80 51
81 36
82 45
83 18
84 32
85 71
86 28
87 54
88 24
89 38
90 66
91 50
92 44
93 40
94 43
95 36
96 63
97 60
98 66
99 67
100 45
101 39
102 45
103 52
104 49
105 69
106 49
107 46
108 39
109 33
110 56
111 52
112 60
113 69
114 28
115 55
116 63
117 50
118 50
119 43
120 42

DEPOT_SECTION
1
-1
EOF
