NAME : instance_30-triangle
TYPE : CVRP
COMMENT : Simplified projection from VRPRDL JSON using first location of each real customer
DIMENSION : 121
EDGE_WEIGHT_TYPE : EUC_2D
CAPACITY : 750

NODE_COORD_SECTION
1 0 0
2 -9 -20
3 -82 8
4 146 51
5 -27 2
6 49 17
7 -139 -60
8 -21 -53
9 2 -138
10 24 160
11 43 8
12 140 35
13 -10 -61
14 109 64
15 -2 -159
16 -18 -133
17 19 -5
18 -2 -4
19 -9 -19
20 -6 2
21 -53 4
22 95 83
23 3 6
24 -18 -24
25 88 123
26 20 93
27 -4 -9
28 6 -9
29 19 5
30 18 -68
31 7 -6
32 120 -34
33 -98 7
34 -12 -45
35 -78 -2
36 -18 16
37 -141 -89
38 70 44
39 -123 -16
40 -126 38
41 5 -7
42 -80 2
43 6 -179
44 22 -109
45 43 15
46 -17 129
47 1 -18
48 30 -11
49 21 77
50 112 -84
51 43 159
52 -143 61
53 15 -44
54 70 -148
55 -49 87
56 -1 -1
57 -61 12
58 86 -139
59 30 24
60 -88 69
61 -98 -105
62 -70 58
63 -1 65
64 -8 1
65 163 9
66 -22 -102
67 -62 29
68 93 87
69 4 2
70 46 -4
71 75 23
72 -14 -6
73 16 28
74 1 -59
75 -22 8
76 100 100
77 -5 -8
78 -40 52
79 -60 9
80 30 -54
81 -114 -100
82 -3 3
83 6 11
84 -79 149
85 11 86
86 -8 -82
87 -49 123
88 25 -8
89 156 -43
90 17 88
91 167 6
92 -21 54
93 -15 16
94 -133 -93
95 6 -22
96 -41 -47
97 0 32
98 -25 -30
99 59 95
100 21 -13
101 -54 -102
102 7 -34
103 -45 -15
104 -95 23
105 157 33
106 -20 -58
107 14 -10
108 0 0
109 -27 6
110 10 44
111 -47 -26
112 -86 12
113 50 -41
114 -3 -12
115 21 22
116 104 40
117 -5 -16
118 -63 -163
119 -8 64
120 -111 -82
121 -18 3

DEMAND_SECTION
1 0
2 73
3 40
4 41
5 46
6 20
7 41
8 44
9 60
10 65
11 48
12 63
13 64
14 55
15 33
16 39
17 38
18 41
19 36
20 72
21 47
22 41
23 45
24 24
25 61
26 38
27 41
28 51
29 43
30 39
31 62
32 48
33 28
34 27
35 46
36 70
37 79
38 48
39 21
40 75
41 42
42 68
43 58
44 56
45 77
46 52
47 97
48 36
49 49
50 35
51 45
52 30
53 42
54 58
55 16
56 67
57 59
58 39
59 59
60 72
61 39
62 23
63 57
64 37
65 25
66 69
67 60
68 59
69 88
70 67
71 56
72 32
73 47
74 62
75 58
76 47
77 81
78 41
79 68
80 25
81 62
82 65
83 54
84 41
85 67
86 46
87 36
88 17
89 53
90 28
91 10
92 33
93 72
94 64
95 48
96 67
97 36
98 54
99 40
100 56
101 59
102 71
103 46
104 60
105 49
106 46
107 64
108 40
109 26
110 45
111 57
112 44
113 26
114 68
115 22
116 50
117 32
118 45
119 60
120 52
121 38

DEPOT_SECTION
1
-1
EOF
