NAME : instance_17-triangle
TYPE : CVRP
COMMENT : Simplified projection from VRPRDL JSON using first location of each real customer
DIMENSION : 31
EDGE_WEIGHT_TYPE : EUC_2D
CAPACITY : 750

NODE_COORD_SECTION
1 0 0
2 -17 126
3 20 84
4 -7 30
5 -71 -80
6 28 -105
7 0 20
8 -24 -37
9 11 -13
10 -112 -14
11 -97 -71
12 -26 -59
13 -24 90
14 70 -28
15 -46 -109
16 76 41
17 -34 18
18 -30 83
19 -68 -108
20 -54 -107
21 90 -41
22 135 36
23 90 -91
24 -77 133
25 27 80
26 -28 -23
27 29 44
28 -4 -132
29 -109 -22
30 -129 27
31 30 15

DEMAND_SECTION
1 0
2 56
3 30
4 77
5 50
6 33
7 53
8 74
9 59
10 48
11 70
12 39
13 28
14 33
15 80
16 53
17 55
18 48
19 83
20 58
21 33
22 69
23 37
24 84
25 79
26 86
27 36
28 52
29 69
30 58
31 53

DEPOT_SECTION
1
-1
EOF
