NAME : instance_7-triangle
TYPE : CVRP
COMMENT : Simplified projection from VRPRDL JSON using first location of each real customer
DIMENSION : 21
EDGE_WEIGHT_TYPE : EUC_2D
CAPACITY : 750

NODE_COORD_SECTION
1 0 0
2 -8 -9
3 -38 108
4 -130 71
5 -108 -2
6 -9 22
7 -33 -93
8 45 -46
9 52 78
10 -17 70
11 17 -42
12 19 19
13 32 158
14 65 53
15 -110 108
16 85 -108
17 -48 -37
18 4 45
19 55 118
20 10 159
21 6 1

DEMAND_SECTION
1 0
2 33
3 50
4 39
5 65
6 49
7 80
8 58
9 40
10 48
11 75
12 48
13 41
14 43
15 47
16 38
17 19
18 53
19 41
20 52
21 50

DEPOT_SECTION
1
-1
EOF
