NAME : instance_14-triangle
TYPE : CVRP
COMMENT : Simplified projection from VRPRDL JSON using first location of each real customer
DIMENSION : 31
EDGE_WEIGHT_TYPE : EUC_2D
CAPACITY : 750

NODE_COORD_SECTION
1 0 0
2 53 108
3 7 -6
4 7 -74
5 76 70
6 -129 -23
7 2 3
8 -24 -15
9 64 -20
10 -55 -6
11 124 125
12 115 -22
13 -19 -94
14 95 130
15 -37 -47
16 -38 -140
17 5 -5
18 55 54
19 43 -10
20 -17 -88
21 -106 -4
22 -45 -86
23 -50 27
24 58 56
25 -105 -64
26 30 -33
27 -39 -11
28 79 6
29 -22 160
30 -41 4
31 -21 -57

DEMAND_SECTION
1 0
2 46
3 70
4 88
5 36
6 43
7 53
8 50
9 53
10 49
11 66
12 57
13 47
14 48
15 44
16 49
17 53
18 89
19 39
20 53
21 38
22 51
23 61
24 71
25 30
26 35
27 59
28 31
29 51
30 60
31 72

DEPOT_SECTION
1
-1
EOF
