NAME : instance_23-triangle
TYPE : CVRP
COMMENT : Simplified projection from VRPRDL JSON using first location of each real customer
DIMENSION : 61
EDGE_WEIGHT_TYPE : EUC_2D
CAPACITY : 750

NODE_COORD_SECTION
1 0 0
2 -99 107
3 100 -45
4 76 127
5 96 58
6 -18 150
7 -36 -11
8 8 63
9 -154 42
10 -22 131
11 61 -67
12 -28 107
13 101 -116
14 -31 19
15 122 -19
16 -86 23
17 -100 -9
18 116 -67
19 88 108
20 -5 12
21 -114 -37
22 -17 95
23 -95 64
24 14 -52
25 -10 -94
26 -21 -141
27 10 3
28 -70 30
29 128 -65
30 37 36
31 13 19
32 153 -86
33 124 -4
34 -14 41
35 123 -65
36 50 -137
37 2 14
38 106 -53
39 -21 -125
40 45 102
41 -12 9
42 -7 -28
43 19 26
44 -91 -52
45 31 50
46 -143 -27
47 11 -2
48 97 74
49 -66 -85
50 66 -56
51 1 -7
52 25 12
53 -4 17
54 -15 -31
55 75 -85
56 -15 83
57 -55 -97
58 -88 27
59 -68 -135
60 -130 -29
61 -27 136

DEMAND_SECTION
1 0
2 60
3 49
4 51
5 44
6 53
7 35
8 52
9 65
10 64
11 33
12 16
13 17
14 49
15 50
16 43
17 47
18 46
19 57
20 79
21 75
22 60
23 32
24 50
25 35
26 69
27 56
28 50
29 27
30 60
31 46
32 42
33 61
34 60
35 79
36 47
37 53
38 63
39 51
40 27
41 26
42 47
43 83
44 76
45 45
46 34
47 61
48 43
49 48
50 42
51 46
52 57
53 58
54 52
55 30
56 40
57 68
58 49
59 40
60 31
61 56

DEPOT_SECTION
1
-1
EOF
