NAME : instance_33-triangle
TYPE : CVRP
COMMENT : Simplified projection from VRPRDL JSON using first location of each real customer
DIMENSION : 121
EDGE_WEIGHT_TYPE : EUC_2D
CAPACITY : 750

NODE_COORD_SECTION
1 0 0
2 9 13
3 -49 65
4 130 -54
5 -86 -3
6 -148 -63
7 29 -26
8 -30 -92
9 -9 14
10 52 -71
11 -28 76
12 -8 -1
13 -41 105
14 93 46
15 33 -13
16 -19 -26
17 53 -48
18 -3 -31
19 2 -5
20 -22 143
21 66 127
22 -69 -10
23 22 -16
24 6 15
25 16 74
26 169 23
27 4 35
28 -13 51
29 -123 -116
30 142 30
31 14 41
32 -69 -23
33 -7 14
34 25 -97
35 -41 78
36 96 -134
37 -43 63
38 -5 0
39 -6 -14
40 -130 79
41 -2 -1
42 -117 8
43 -129 -28
44 -138 -24
45 124 -126
46 -7 -1
47 -59 40
48 -42 18
49 53 9
50 -16 30
51 -41 14
52 37 66
53 -8 10
54 -73 -75
55 17 -83
56 4 -43
57 97 53
58 23 34
59 -49 -71
60 49 -71
61 -2 68
62 -114 -19
63 22 9
64 -1 77
65 -86 -5
66 118 -28
67 -116 22
68 77 -97
69 5 -92
70 141 -75
71 -114 -44
72 84 13
73 128 107
74 39 -49
75 51 -128
76 -15 -3
77 34 -89
78 7 -5
79 50 120
80 50 34
81 -130 31
82 111 64
83 -3 0
84 -73 19
85 6 -37
86 88 -71
87 -146 -18
88 -68 98
89 13 51
90 82 -55
91 -61 -32
92 38 109
93 -24 -16
94 -77 84
95 79 -87
96 -48 -1
97 82 -73
98 47 24
99 -79 -47
100 -127 80
101 -63 4
102 3 -1
103 -49 -25
104 162 -68
105 -20 32
106 77 -1
107 13 -132
108 28 30
109 3 -63
110 98 -12
111 6 11
112 -6 -13
113 30 77
114 18 22
115 -10 -31
116 -82 153
117 3 12
118 -62 -56
119 -138 -22
120 19 55
121 -62 -3

DEMAND_SECTION
1 0
2 54
3 43
4 43
5 35
6 64
7 58
8 63
9 57
10 59
11 75
12 61
13 68
14 46
15 63
16 34
17 68
18 66
19 73
20 46
21 46
22 60
23 51
24 55
25 72
26 39
27 54
28 57
29 28
30 43
31 66
32 42
33 49
34 50
35 37
36 43
37 50
38 33
39 57
40 46
41 23
42 77
43 55
44 30
45 31
46 49
47 55
48 47
49 22
50 22
51 52
52 59
53 67
54 27
55 46
56 40
57 36
58 50
59 46
60 42
61 44
62 12
63 46
64 38
65 48
66 61
67 42
68 30
69 49
70 48
71 54
72 39
73 61
74 48
75 37
76 50
77 77
78 38
79 29
80 51
81 57
82 34
83 59
84 51
85 56
86 65
87 23
88 37
89 40
90 23
91 23
92 23
93 40
94 78
95 58
96 20
97 79
98 33
99 54
100 23
101 36
102 36
103 24
104 66
105 37
106 37
107 32
108 37
109 52
110 43
111 48
112 61
113 37
114 46
115 88
116 26
117 34
118 65
119 42
120 72
121 36

DEPOT_SECTION
1
-1
EOF
