NAME : instance_10-triangle
TYPE : CVRP
COMMENT : Simplified projection from VRPRDL JSON using first location of each real customer
DIMENSION : 31
EDGE_WEIGHT_TYPE : EUC_2D
CAPACITY : 750

NODE_COORD_SECTION
1 0 0
2 43 -15
3 -144 -19
4 26 24
5 -159 -60
6 -44 43
7 -20 -1
8 26 -142
9 -85 103
10 40 -21
11 46 41
12 163 3
13 174 -23
14 134 -23
15 5 14
16 -17 28
17 -115 38
18 31 16
19 -81 72
20 1 -8
21 -86 120
22 -10 -49
23 -47 -48
24 -80 -105
25 -58 72
26 71 -80
27 130 -53
28 0 2
29 6 10
30 -49 -78
31 -36 54

DEMAND_SECTION
1 0
2 45
3 39
4 42
5 48
6 41
7 53
8 70
9 57
10 57
11 46
12 42
13 56
14 34
15 26
16 58
17 72
18 37
19 72
20 41
21 61
22 54
23 79
24 31
25 68
26 52
27 42
28 42
29 38
30 37
31 27

DEPOT_SECTION
1
-1
EOF
