NAME : instance_9-triangle
TYPE : CVRP
COMMENT : Simplified projection from VRPRDL JSON using first location of each real customer
DIMENSION : 21
EDGE_WEIGHT_TYPE : EUC_2D
CAPACITY : 750

NODE_COORD_SECTION
1 0 0
2 -35 81
3 66 -156
4 36 -1
5 -26 -104
6 -85 -24
7 -45 -88
8 118 66
9 133 18
10 -152 -4
11 -11 63
12 0 0
13 -28 -10
14 2 -4
15 -73 -26
16 -85 -48
17 44 -14
18 -41 19
19 -15 -97
20 -25 -11
21 105 46

DEMAND_SECTION
1 0
2 56
3 35
4 61
5 70
6 55
7 54
8 55
9 58
10 31
11 69
12 33
13 69
14 68
15 42
16 63
17 22
18 58
19 65
20 58
21 47

DEPOT_SECTION
1
-1
EOF
