NAME : instance_21-triangle
TYPE : CVRP
COMMENT : Simplified projection from VRPRDL JSON using first location of each real customer
DIMENSION : 61
EDGE_WEIGHT_TYPE : EUC_2D
CAPACITY : 750

NODE_COORD_SECTION
1 0 0
2 87 95
3 10 3
4 106 56
5 30 13
6 7 26
7 -61 11
8 62 20
9 1 -47
10 -52 -64
11 -15 15
12 26 -116
13 135 17
14 -8 -102
15 -87 -61
16 50 -31
17 -5 95
18 20 64
19 5 23
20 45 32
21 -41 140
22 93 5
23 -8 -61
24 -27 -19
25 -68 156
26 16 -3
27 80 -31
28 15 -70
29 0 95
30 137 -32
31 78 -56
32 -6 51
33 -4 16
34 -43 0
35 0 36
36 66 -101
37 -102 -59
38 -69 92
39 161 -12
40 28 -5
41 13 28
42 -7 134
43 -20 126
44 99 -13
45 -40 24
46 -38 -119
47 83 29
48 -33 4
49 -54 21
50 1 0
51 100 -24
52 -65 126
53 -59 45
54 -132 4
55 -3 1
56 -8 54
57 116 8
58 17 -139
59 88 -20
60 3 5
61 147 -43

DEMAND_SECTION
1 0
2 30
3 48
4 71
5 58
6 36
7 50
8 32
9 70
10 62
11 65
12 65
13 53
14 39
15 73
16 42
17 78
18 56
19 66
20 35
21 72
22 25
23 64
24 45
25 41
26 33
27 59
28 55
29 72
30 54
31 34
32 54
33 67
34 68
35 57
36 37
37 76
38 48
39 56
40 26
41 64
42 48
43 22
44 47
45 43
46 13
47 66
48 55
49 41
50 58
51 39
52 45
53 56
54 51
55 46
56 69
57 43
58 36
59 27
60 57
61 56

DEPOT_SECTION
1
-1
EOF
