NAME : instance_12-triangle
TYPE : CVRP
COMMENT : Simplified projection from VRPRDL JSON using first location of each real customer
DIMENSION : 31
EDGE_WEIGHT_TYPE : EUC_2D
CAPACITY : 750

NODE_COORD_SECTION
1 0 0
2 1 -42
3 33 93
4 -161 -15
5 14 -41
6 20 -7
7 41 -2
8 0 43
9 -23 -65
10 101 37
11 -28 0
12 -24 -49
13 132 18
14 6 -43
15 -7 -32
16 15 11
17 -115 -106
18 -130 -110
19 46 -139
20 -16 5
21 83 8
22 12 -4
23 -84 103
24 -38 28
25 39 -101
26 -9 64
27 28 4
28 -13 25
29 3 0
30 -79 129
31 47 21

DEMAND_SECTION
1 0
2 58
3 70
4 66
5 57
6 28
7 75
8 55
9 55
10 65
11 59
12 48
13 51
14 40
15 37
16 49
17 50
18 60
19 34
20 66
21 53
22 66
23 42
24 56
25 34
26 69
27 46
28 32
29 16
30 56
31 75

DEPOT_SECTION
1
-1
EOF
