NAME : instance_22-triangle
TYPE : CVRP
COMMENT : Simplified projection from VRPRDL JSON using first location of each real customer
DIMENSION : 61
EDGE_WEIGHT_TYPE : EUC_2D
CAPACITY : 750

NODE_COORD_SECTION
1 0 0
2 118 15
3 15 -83
4 -16 -10
5 -59 -133
6 -56 44
7 -52 -88
8 41 49
9 -141 76
10 -15 -66
11 165 -37
12 -116 2
13 -118 -127
14 51 11
15 60 51
16 -72 165
17 -34 -14
18 5 133
19 78 78
20 17 -22
21 106 -112
22 -124 -48
23 27 -136
24 -51 40
25 -108 1
26 2 -9
27 30 95
28 90 -40
29 31 -6
30 -19 -94
31 -47 -83
32 60 -23
33 7 -9
34 -2 8
35 -1 -2
36 -32 126
37 -87 -20
38 127 -20
39 42 10
40 62 132
41 -88 -44
42 144 23
43 7 -13
44 144 -37
45 -8 14
46 -42 87
47 -14 0
48 -25 29
49 -52 38
50 -78 151
51 16 156
52 15 -51
53 -29 -36
54 93 143
55 7 5
56 39 26
57 53 55
58 -61 76
59 37 172
60 -29 -40
61 2 113

DEMAND_SECTION
1 0
2 19
3 23
4 55
5 44
6 43
7 61
8 55
9 70
10 65
11 45
12 54
13 70
14 50
15 17
16 39
17 43
18 70
19 71
20 42
21 58
22 66
23 65
24 61
25 54
26 50
27 51
28 61
29 60
30 36
31 56
32 43
33 55
34 55
35 53
36 40
37 54
38 29
39 42
40 55
41 17
42 54
43 29
44 77
45 58
46 71
47 49
48 87
49 58
50 52
51 34
52 56
53 41
54 67
55 70
56 29
57 54
58 31
59 57
60 57
61 18

DEPOT_SECTION
1
-1
EOF
