NAME : instance_19-triangle
TYPE : CVRP
COMMENT : Simplified projection from VRPRDL JSON using first location of each real customer
DIMENSION : 31
EDGE_WEIGHT_TYPE : EUC_2D
CAPACITY : 750

NODE_COORD_SECTION
1 0 0
2 1 153
3 39 -66
4 42 64
5 11 -16
6 5 30
7 -58 16
8 -9 -8
9 30 30
10 -50 148
11 25 -43
12 68 32
13 -39 -21
14 2 12
15 -1 58
16 28 20
17 -54 110
18 -3 14
19 25 51
20 24 -10
21 93 45
22 0 28
23 -73 58
24 10 151
25 -14 4
26 -15 -171
27 21 68
28 113 106
29 133 -104
30 -54 -28
31 73 -89

DEMAND_SECTION
1 0
2 30
3 47
4 27
5 62
6 33
7 58
8 41
9 46
10 73
11 49
12 69
13 61
14 68
15 41
16 47
17 48
18 34
19 77
20 50
21 27
22 75
23 50
24 34
25 44
26 43
27 50
28 41
29 49
30 47
31 28

DEPOT_SECTION
1
-1
EOF
