NAME : instance_37-triangle
TYPE : CVRP
COMMENT : Simplified projection from VRPRDL JSON using first location of each real customer
DIMENSION : 121
EDGE_WEIGHT_TYPE : EUC_2D
CAPACITY : 750

NODE_COORD_SECTION
1 0 0
2 14 -171
3 -157 -62
4 -110 -37
5 -131 -1
6 -6 -15
7 -67 -137
8 -20 -14
9 -99 -36
10 38 150
11 164 45
12 -32 66
13 -59 44
14 -5 3
15 -3 18
16 22 -17
17 15 -27
18 -105 -53
19 29 -17
20 8 -39
21 -77 86
22 92 -41
23 94 44
24 60 -74
25 -61 -102
26 146 33
27 -32 -84
28 -87 82
29 108 127
30 -112 58
31 -40 107
32 -76 108
33 10 35
34 -1 -2
35 -131 -14
36 -26 147
37 -5 -103
38 -63 -11
39 -2 -5
40 -18 135
41 76 -119
42 -49 29
43 -56 -53
44 9 25
45 0 0
46 -89 11
47 -47 5
48 0 0
49 -146 -71
50 85 0
51 -29 168
52 -119 89
53 -142 -6
54 -4 33
55 0 0
56 139 49
57 63 -152
58 -9 162
59 39 57
60 -16 33
61 48 19
62 0 26
63 -147 87
64 23 76
65 -34 112
66 162 29
67 -6 6
68 76 2
69 -28 -84
70 -67 40
71 -87 66
72 -124 -19
73 3 10
74 -100 -35
75 -64 -32
76 9 154
77 -111 -36
78 -4 -2
79 13 12
80 21 0
81 8 11
82 -92 57
83 116 -28
84 11 11
85 14 3
86 80 -20
87 -42 4
88 -86 -40
89 86 -77
90 142 30
91 -43 -40
92 96 -7
93 121 128
94 19 82
95 30 125
96 92 -70
97 -32 22
98 -22 -24
99 126 -92
100 0 112
101 45 -19
102 -43 49
103 -76 -64
104 17 46
105 -19 2
106 78 99
107 14 42
108 0 7
109 -76 -161
110 -131 82
111 106 -9
112 -18 39
113 -26 134
114 -1 2
115 -55 12
116 105 -108
117 -40 69
118 106 29
119 6 27
120 2 4
121 -13 85

DEMAND_SECTION
1 0
2 54
3 46
4 24
5 48
6 33
7 40
8 36
9 24
10 36
11 62
12 53
13 50
14 54
15 51
16 53
17 71
18 71
19 54
20 41
21 18
22 47
23 47
24 56
25 52
26 59
27 59
28 49
29 49
30 32
31 50
32 46
33 45
34 36
35 27
36 45
37 41
38 72
39 49
40 39
41 54
42 64
43 56
44 58
45 51
46 61
47 39
48 67
49 30
50 46
51 59
52 36
53 72
54 59
55 35
56 43
57 54
58 66
59 55
60 41
61 37
62 50
63 36
64 81
65 11
66 61
67 42
68 66
69 51
70 51
71 63
72 42
73 41
74 38
75 36
76 33
77 30
78 58
79 66
80 67
81 46
82 43
83 32
84 51
85 38
86 48
87 41
88 41
89 50
90 57
91 26
92 30
93 54
94 55
95 35
96 54
97 57
98 26
99 30
100 43
101 24
102 50
103 28
104 65
105 65
106 33
107 59
108 11
109 46
110 89
111 58
112 24
113 70
114 53
115 29
116 47
117 57
118 35
119 17
120 50
121 54

DEPOT_SECTION
1
-1
EOF
