NAME : instance_38-triangle
TYPE : CVRP
COMMENT : Simplified projection from VRPRDL JSON using first location of each real customer
DIMENSION : 121
EDGE_WEIGHT_TYPE : EUC_2D
CAPACITY : 750

NODE_COORD_SECTION
1 0 0
2 -54 -117
3 108 3
4 17 -7
5 -30 80
6 -2 -103
7 -13 40
8 -11 26
9 -63 56
10 -99 142
11 69 -101
12 69 15
13 -90 29
14 92 -30
15 18 -53
16 -44 55
17 14 75
18 88 120
19 -95 -107
20 -51 18
21 156 50
22 -66 81
23 -27 -22
24 0 0
25 -40 28
26 137 80
27 23 172
28 -94 -63
29 131 -89
30 -84 -74
31 -26 86
32 99 -48
33 137 -13
34 -54 -28
35 -17 -37
36 -88 -18
37 -74 16
38 -20 -9
39 -101 -147
40 7 25
41 -111 67
42 6 -34
43 -22 -16
44 8 -21
45 -42 -138
46 20 -136
47 26 -25
48 2 104
49 164 -16
50 -35 -61
51 3 -5
52 -1 76
53 113 -24
54 47 67
55 -95 133
56 -78 70
57 79 109
58 -17 131
59 66 33
60 -135 -53
61 -8 -38
62 9 -37
63 113 -23
64 -15 73
65 11 14
66 69 -125
67 -49 15
68 -5 23
69 -68 103
70 -77 68
71 81 -121
72 -46 37
73 4 166
74 -65 -123
75 116 131
76 61 112
77 0 0
78 -29 -11
79 -3 -72
80 134 -107
81 79 -48
82 -18 80
83 -50 -58
84 -73 -8
85 55 58
86 -1 4
87 -82 -153
88 48 -57
89 -52 -159
90 18 91
91 -131 96
92 137 111
93 20 -17
94 -43 16
95 156 -80
96 17 86
97 -100 -42
98 -22 140
99 14 19
100 -6 -52
101 112 27
102 -3 40
103 49 14
104 -33 50
105 0 0
106 -3 -40
107 0 0
108 7 -41
109 14 -128
110 2 -15
111 -3 -11
112 -142 -71
113 -58 -156
114 35 120
115 150 -52
116 -33 -29
117 -43 68
118 93 -19
119 -3 4
120 77 115
121 56 -26

DEMAND_SECTION
1 0
2 53
3 55
4 51
5 46
6 51
7 27
8 38
9 71
10 32
11 46
12 55
13 77
14 69
15 58
16 59
17 39
18 53
19 60
20 38
21 40
22 58
23 52
24 66
25 46
26 49
27 64
28 38
29 29
30 50
31 60
32 40
33 52
34 48
35 30
36 51
37 51
38 70
39 41
40 55
41 35
42 40
43 34
44 38
45 38
46 71
47 52
48 69
49 36
50 65
51 56
52 54
53 58
54 81
55 66
56 52
57 49
58 38
59 30
60 26
61 30
62 30
63 47
64 36
65 47
66 23
67 50
68 21
69 62
70 44
71 46
72 44
73 63
74 44
75 50
76 38
77 29
78 55
79 60
80 19
81 33
82 69
83 40
84 30
85 89
86 60
87 70
88 47
89 26
90 52
91 63
92 46
93 49
94 27
95 22
96 36
97 61
98 54
99 47
100 22
101 60
102 45
103 45
104 37
105 41
106 51
107 55
108 43
109 48
110 46
111 39
112 69
113 69
114 56
115 21
116 56
117 42
118 63
119 49
120 59
121 51

DEPOT_SECTION
1
-1
EOF
