NAME : instance_26-triangle
TYPE : CVRP
COMMENT : Simplified projection from VRPRDL JSON using first location of each real customer
DIMENSION : 61
EDGE_WEIGHT_TYPE : EUC_2D
CAPACITY : 750

NODE_COORD_SECTION
1 0 0
2 -33 -27
3 148 74
4 -15 -96
5 115 -82
6 -113 137
7 45 -148
8 118 112
9 81 -59
10 9 23
11 31 -14
12 -32 137
13 -4 28
14 -43 -143
15 -13 122
16 -126 90
17 -55 -83
18 126 -23
19 18 -124
20 12 -113
21 155 -50
22 -48 6
23 -60 -107
24 -74 -98
25 2 -22
26 -77 52
27 110 -1
28 -89 28
29 -34 71
30 32 -83
31 -6 -36
32 -120 92
33 -49 -135
34 -95 -46
35 25 -73
36 -24 -71
37 -17 21
38 56 26
39 0 8
40 20 -8
41 -66 -39
42 25 -91
43 3 -19
44 -11 167
45 16 -62
46 87 -24
47 -36 74
48 126 -18
49 26 -18
50 -116 83
51 38 -149
52 -14 170
53 -3 12
54 -33 19
55 13 1
56 -45 -31
57 -5 14
58 37 120
59 -13 -7
60 -55 -16
61 -66 8

DEMAND_SECTION
1 0
2 17
3 32
4 56
5 69
6 68
7 45
8 33
9 49
10 52
11 46
12 42
13 62
14 81
15 33
16 53
17 15
18 58
19 49
20 56
21 43
22 59
23 29
24 58
25 71
26 44
27 37
28 47
29 57
30 49
31 71
32 43
33 67
34 60
35 75
36 43
37 58
38 20
39 47
40 70
41 57
42 36
43 55
44 40
45 55
46 46
47 57
48 22
49 46
50 62
51 65
52 37
53 49
54 60
55 51
56 40
57 24
58 24
59 61
60 43
61 31

DEPOT_SECTION
1
-1
EOF
