NAME : instance_31-triangle
TYPE : CVRP
COMMENT : Simplified projection from VRPRDL JSON using first location of each real customer
DIMENSION : 121
EDGE_WEIGHT_TYPE : EUC_2D
CAPACITY : 750

NODE_COORD_SECTION
1 0 0
2 80 119
3 -1 -19
4 27 -32
5 -46 153
6 -37 2
7 -98 75
8 2 -1
9 30 84
10 -1 21
11 -33 -31
12 -48 -96
13 -158 -32
14 -8 -74
15 -41 -154
16 119 -98
17 -117 -47
18 -52 125
19 -5 21
20 10 21
21 26 11
22 19 0
23 103 -14
24 35 -10
25 107 -5
26 25 66
27 118 117
28 72 -119
29 -44 -21
30 0 131
31 -154 -82
32 89 144
33 -29 -99
34 -68 -78
35 -50 -48
36 47 32
37 -45 -87
38 -65 136
39 59 27
40 29 -100
41 32 43
42 -29 138
43 7 -2
44 62 -6
45 93 -139
46 39 152
47 -96 -6
48 -84 38
49 -136 58
50 2 -21
51 35 129
52 -92 -42
53 -3 -7
54 -9 7
55 74 -78
56 45 -68
57 19 -1
58 35 -64
59 -62 -16
60 -45 -110
61 143 -71
62 86 -40
63 -90 -146
64 -141 1
65 -57 7
66 -20 3
67 -14 27
68 -99 8
69 2 -100
70 -51 133
71 -8 0
72 5 -77
73 -2 -36
74 -142 -36
75 -1 -27
76 37 56
77 -90 105
78 98 66
79 128 24
80 -32 -6
81 109 -69
82 -137 4
83 -117 -5
84 -32 89
85 -12 -103
86 54 74
87 -96 57
88 46 12
89 -33 -24
90 19 -1
91 -8 -28
92 8 67
93 81 -41
94 18 -6
95 21 -24
96 19 -83
97 -18 18
98 -46 -139
99 -34 -49
100 -1 43
101 9 14
102 20 -5
103 3 -10
104 115 -78
105 63 -80
106 32 43
107 58 -49
108 53 -53
109 -131 57
110 -77 -101
111 8 18
112 -124 -78
113 0 0
114 71 -29
115 -67 -33
116 61 2
117 50 -103
118 10 135
119 -38 -77
120 -1 -3
121 -87 -86

DEMAND_SECTION
1 0
2 47
3 55
4 58
5 43
6 77
7 32
8 39
9 54
10 61
11 62
12 68
13 55
14 64
15 49
16 74
17 36
18 55
19 56
20 44
21 35
22 40
23 64
24 40
25 68
26 38
27 54
28 64
29 65
30 50
31 52
32 55
33 57
34 57
35 65
36 36
37 32
38 42
39 57
40 50
41 47
42 46
43 27
44 57
45 42
46 49
47 60
48 34
49 72
50 92
51 19
52 49
53 52
54 69
55 56
56 48
57 55
58 35
59 45
60 57
61 43
62 51
63 58
64 33
65 35
66 53
67 48
68 72
69 22
70 45
71 56
72 43
73 29
74 41
75 26
76 46
77 48
78 64
79 46
80 51
81 34
82 13
83 70
84 31
85 48
86 57
87 87
88 66
89 59
90 34
91 59
92 47
93 59
94 45
95 53
96 35
97 39
98 44
99 23
100 79
101 50
102 49
103 57
104 62
105 56
106 47
107 22
108 49
109 32
110 26
111 58
112 90
113 41
114 29
115 79
116 49
117 51
118 45
119 53
120 67
121 69

DEPOT_SECTION
1
-1
EOF
