NAME : instance_25-triangle
TYPE : CVRP
COMMENT : Simplified projection from VRPRDL JSON using first location of each real customer
DIMENSION : 61
EDGE_WEIGHT_TYPE : EUC_2D
CAPACITY : 750

NODE_COORD_SECTION
1 0 0
2 33 -54
3 -140 109
4 22 -22
5 38 16
6 84 94
7 -4 -34
8 67 97
9 8 -132
10 13 152
11 -69 -41
12 80 -36
13 0 -1
14 -135 64
15 -148 12
16 56 116
17 -91 -17
18 16 30
19 50 -51
20 2 0
21 166 -2
22 16 -6
23 55 82
24 72 -99
25 -96 0
26 20 -3
27 52 25
28 24 -3
29 14 -8
30 -37 -59
31 11 7
32 -76 -23
33 103 9
34 -5 48
35 -5 -156
36 -12 -154
37 -83 28
38 -107 -113
39 94 127
40 98 -28
41 18 -32
42 156 35
43 44 103
44 67 -136
45 20 114
46 -103 44
47 -72 -50
48 -77 37
49 -68 -136
50 50 138
51 8 -72
52 83 -127
53 164 69
54 -66 -68
55 -3 3
56 53 64
57 -19 -10
58 19 -11
59 17 -75
60 0 -1
61 88 -66

DEMAND_SECTION
1 0
2 47
3 41
4 43
5 64
6 24
7 82
8 44
9 60
10 48
11 56
12 55
13 48
14 95
15 65
16 41
17 36
18 39
19 61
20 60
21 69
22 29
23 63
24 60
25 28
26 95
27 44
28 58
29 30
30 31
31 78
32 32
33 72
34 28
35 60
36 32
37 22
38 54
39 48
40 53
41 71
42 64
43 36
44 50
45 72
46 42
47 14
48 52
49 63
50 46
51 45
52 64
53 30
54 49
55 60
56 58
57 65
58 59
59 47
60 52
61 9

DEPOT_SECTION
1
-1
EOF
