NAME : instance_24-triangle
TYPE : CVRP
COMMENT : Simplified projection from VRPRDL JSON using first location of each real customer
DIMENSION : 61
EDGE_WEIGHT_TYPE : EUC_2D
CAPACITY : 750

NODE_COORD_SECTION
1 0 0
2 75 -88
3 -118 -77
4 -51 12
5 -86 -57
6 75 -55
7 135 45
8 -40 -25
9 90 -10
10 -123 65
11 32 -38
12 20 -17
13 111 94
14 -94 -24
15 36 -16
16 18 -54
17 76 34
18 -138 25
19 -48 2
20 -93 72
21 -128 -56
22 14 20
23 -25 -54
24 -39 -148
25 44 -43
26 2 -5
27 14 -137
28 -66 -58
29 -1 -17
30 22 163
31 -52 -141
32 30 -9
33 42 -25
34 16 -21
35 -62 -37
36 -23 -23
37 14 -43
38 29 -133
39 19 7
40 17 153
41 6 18
42 -66 -30
43 -8 -8
44 -5 43
45 -33 2
46 -3 -60
47 10 7
48 -4 -32
49 0 -3
50 -122 72
51 -73 14
52 -54 102
53 -89 130
54 127 17
55 -110 -22
56 -74 34
57 8 -145
58 -27 -10
59 -56 25
60 -93 -40
61 57 -12

DEMAND_SECTION
1 0
2 34
3 72
4 59
5 60
6 83
7 67
8 56
9 55
10 37
11 51
12 56
13 43
14 52
15 58
16 36
17 65
18 43
19 55
20 39
21 33
22 46
23 75
24 57
25 23
26 47
27 54
28 68
29 34
30 66
31 64
32 48
33 68
34 54
35 63
36 38
37 39
38 42
39 41
40 32
41 47
42 30
43 26
44 48
45 34
46 24
47 69
48 66
49 48
50 69
51 67
52 56
53 35
54 63
55 51
56 45
57 34
58 25
59 37
60 49
61 46

DEPOT_SECTION
1
-1
EOF
