NAME : instance_18-triangle
TYPE : CVRP
COMMENT : Simplified projection from VRPRDL JSON using first location of each real customer
DIMENSION : 31
EDGE_WEIGHT_TYPE : EUC_2D
CAPACITY : 750

NODE_COORD_SECTION
1 0 0
2 62 -30
3 -99 61
4 56 -88
5 -55 -146
6 -101 -99
7 35 5
8 73 -81
9 9 -82
10 94 127
11 80 62
12 -10 25
13 48 61
14 0 12
15 80 -85
16 -20 30
17 14 48
18 41 -5
19 -179 -13
20 48 56
21 20 5
22 -43 37
23 -8 25
24 -110 27
25 -121 44
26 -69 27
27 5 -31
28 -22 10
29 -11 -144
30 97 102
31 -14 -18

DEMAND_SECTION
1 0
2 37
3 53
4 43
5 33
6 50
7 25
8 44
9 39
10 75
11 64
12 25
13 63
14 40
15 63
16 65
17 68
18 30
19 39
20 31
21 53
22 37
23 82
24 32
25 70
26 40
27 32
28 46
29 68
30 38
31 34

DEPOT_SECTION
1
-1
EOF
